# vtk DataFile Version 4.1
CantileverFEMDiscontinuous
ASCII

DATASET UNSTRUCTURED_GRID
POINTS 4000 double
0 0 0.0
2 0 0.0
2 1 0.0
0 1 0.0
2 0 0.0
4 0 0.0
4 1 0.0
2 1 0.0
4 0 0.0
6 0 0.0
6 1 0.0
4 1 0.0
6 0 0.0
8 0 0.0
8 1 0.0
6 1 0.0
8 0 0.0
10 0 0.0
10 1 0.0
8 1 0.0
10 0 0.0
12 0 0.0
12 1 0.0
10 1 0.0
12 0 0.0
14 0 0.0
14 1 0.0
12 1 0.0
14 0 0.0
16 0 0.0
16 1 0.0
14 1 0.0
16 0 0.0
18 0 0.0
18 1 0.0
16 1 0.0
18 0 0.0
20 0 0.0
20 1 0.0
18 1 0.0
20 0 0.0
22 0 0.0
22 1 0.0
20 1 0.0
22 0 0.0
24 0 0.0
24 1 0.0
22 1 0.0
24 0 0.0
26 0 0.0
26 1 0.0
24 1 0.0
26 0 0.0
28 0 0.0
28 1 0.0
26 1 0.0
28 0 0.0
30 0 0.0
30 1 0.0
28 1 0.0
30 0 0.0
32 0 0.0
32 1 0.0
30 1 0.0
32 0 0.0
34 0 0.0
34 1 0.0
32 1 0.0
34 0 0.0
36 0 0.0
36 1 0.0
34 1 0.0
36 0 0.0
38 0 0.0
38 1 0.0
36 1 0.0
38 0 0.0
40 0 0.0
40 1 0.0
38 1 0.0
40 0 0.0
42 0 0.0
42 1 0.0
40 1 0.0
42 0 0.0
44 0 0.0
44 1 0.0
42 1 0.0
44 0 0.0
46 0 0.0
46 1 0.0
44 1 0.0
46 0 0.0
48 0 0.0
48 1 0.0
46 1 0.0
48 0 0.0
50 0 0.0
50 1 0.0
48 1 0.0
50 0 0.0
52 0 0.0
52 1 0.0
50 1 0.0
52 0 0.0
54 0 0.0
54 1 0.0
52 1 0.0
54 0 0.0
56 0 0.0
56 1 0.0
54 1 0.0
56 0 0.0
58 0 0.0
58 1 0.0
56 1 0.0
58 0 0.0
60 0 0.0
60 1 0.0
58 1 0.0
60 0 0.0
62 0 0.0
62 1 0.0
60 1 0.0
62 0 0.0
64 0 0.0
64 1 0.0
62 1 0.0
64 0 0.0
66 0 0.0
66 1 0.0
64 1 0.0
66 0 0.0
68 0 0.0
68 1 0.0
66 1 0.0
68 0 0.0
70 0 0.0
70 1 0.0
68 1 0.0
70 0 0.0
72 0 0.0
72 1 0.0
70 1 0.0
72 0 0.0
74 0 0.0
74 1 0.0
72 1 0.0
74 0 0.0
76 0 0.0
76 1 0.0
74 1 0.0
76 0 0.0
78 0 0.0
78 1 0.0
76 1 0.0
78 0 0.0
80 0 0.0
80 1 0.0
78 1 0.0
80 0 0.0
82 0 0.0
82 1 0.0
80 1 0.0
82 0 0.0
84 0 0.0
84 1 0.0
82 1 0.0
84 0 0.0
86 0 0.0
86 1 0.0
84 1 0.0
86 0 0.0
88 0 0.0
88 1 0.0
86 1 0.0
88 0 0.0
90 0 0.0
90 1 0.0
88 1 0.0
90 0 0.0
92 0 0.0
92 1 0.0
90 1 0.0
92 0 0.0
94 0 0.0
94 1 0.0
92 1 0.0
94 0 0.0
96 0 0.0
96 1 0.0
94 1 0.0
96 0 0.0
98 0 0.0
98 1 0.0
96 1 0.0
98 0 0.0
100 0 0.0
100 1 0.0
98 1 0.0
0 1 0.0
2 1 0.0
2 2 0.0
0 2 0.0
2 1 0.0
4 1 0.0
4 2 0.0
2 2 0.0
4 1 0.0
6 1 0.0
6 2 0.0
4 2 0.0
6 1 0.0
8 1 0.0
8 2 0.0
6 2 0.0
8 1 0.0
10 1 0.0
10 2 0.0
8 2 0.0
10 1 0.0
12 1 0.0
12 2 0.0
10 2 0.0
12 1 0.0
14 1 0.0
14 2 0.0
12 2 0.0
14 1 0.0
16 1 0.0
16 2 0.0
14 2 0.0
16 1 0.0
18 1 0.0
18 2 0.0
16 2 0.0
18 1 0.0
20 1 0.0
20 2 0.0
18 2 0.0
20 1 0.0
22 1 0.0
22 2 0.0
20 2 0.0
22 1 0.0
24 1 0.0
24 2 0.0
22 2 0.0
24 1 0.0
26 1 0.0
26 2 0.0
24 2 0.0
26 1 0.0
28 1 0.0
28 2 0.0
26 2 0.0
28 1 0.0
30 1 0.0
30 2 0.0
28 2 0.0
30 1 0.0
32 1 0.0
32 2 0.0
30 2 0.0
32 1 0.0
34 1 0.0
34 2 0.0
32 2 0.0
34 1 0.0
36 1 0.0
36 2 0.0
34 2 0.0
36 1 0.0
38 1 0.0
38 2 0.0
36 2 0.0
38 1 0.0
40 1 0.0
40 2 0.0
38 2 0.0
40 1 0.0
42 1 0.0
42 2 0.0
40 2 0.0
42 1 0.0
44 1 0.0
44 2 0.0
42 2 0.0
44 1 0.0
46 1 0.0
46 2 0.0
44 2 0.0
46 1 0.0
48 1 0.0
48 2 0.0
46 2 0.0
48 1 0.0
50 1 0.0
50 2 0.0
48 2 0.0
50 1 0.0
52 1 0.0
52 2 0.0
50 2 0.0
52 1 0.0
54 1 0.0
54 2 0.0
52 2 0.0
54 1 0.0
56 1 0.0
56 2 0.0
54 2 0.0
56 1 0.0
58 1 0.0
58 2 0.0
56 2 0.0
58 1 0.0
60 1 0.0
60 2 0.0
58 2 0.0
60 1 0.0
62 1 0.0
62 2 0.0
60 2 0.0
62 1 0.0
64 1 0.0
64 2 0.0
62 2 0.0
64 1 0.0
66 1 0.0
66 2 0.0
64 2 0.0
66 1 0.0
68 1 0.0
68 2 0.0
66 2 0.0
68 1 0.0
70 1 0.0
70 2 0.0
68 2 0.0
70 1 0.0
72 1 0.0
72 2 0.0
70 2 0.0
72 1 0.0
74 1 0.0
74 2 0.0
72 2 0.0
74 1 0.0
76 1 0.0
76 2 0.0
74 2 0.0
76 1 0.0
78 1 0.0
78 2 0.0
76 2 0.0
78 1 0.0
80 1 0.0
80 2 0.0
78 2 0.0
80 1 0.0
82 1 0.0
82 2 0.0
80 2 0.0
82 1 0.0
84 1 0.0
84 2 0.0
82 2 0.0
84 1 0.0
86 1 0.0
86 2 0.0
84 2 0.0
86 1 0.0
88 1 0.0
88 2 0.0
86 2 0.0
88 1 0.0
90 1 0.0
90 2 0.0
88 2 0.0
90 1 0.0
92 1 0.0
92 2 0.0
90 2 0.0
92 1 0.0
94 1 0.0
94 2 0.0
92 2 0.0
94 1 0.0
96 1 0.0
96 2 0.0
94 2 0.0
96 1 0.0
98 1 0.0
98 2 0.0
96 2 0.0
98 1 0.0
100 1 0.0
100 2 0.0
98 2 0.0
0 2 0.0
2 2 0.0
2 3 0.0
0 3 0.0
2 2 0.0
4 2 0.0
4 3 0.0
2 3 0.0
4 2 0.0
6 2 0.0
6 3 0.0
4 3 0.0
6 2 0.0
8 2 0.0
8 3 0.0
6 3 0.0
8 2 0.0
10 2 0.0
10 3 0.0
8 3 0.0
10 2 0.0
12 2 0.0
12 3 0.0
10 3 0.0
12 2 0.0
14 2 0.0
14 3 0.0
12 3 0.0
14 2 0.0
16 2 0.0
16 3 0.0
14 3 0.0
16 2 0.0
18 2 0.0
18 3 0.0
16 3 0.0
18 2 0.0
20 2 0.0
20 3 0.0
18 3 0.0
20 2 0.0
22 2 0.0
22 3 0.0
20 3 0.0
22 2 0.0
24 2 0.0
24 3 0.0
22 3 0.0
24 2 0.0
26 2 0.0
26 3 0.0
24 3 0.0
26 2 0.0
28 2 0.0
28 3 0.0
26 3 0.0
28 2 0.0
30 2 0.0
30 3 0.0
28 3 0.0
30 2 0.0
32 2 0.0
32 3 0.0
30 3 0.0
32 2 0.0
34 2 0.0
34 3 0.0
32 3 0.0
34 2 0.0
36 2 0.0
36 3 0.0
34 3 0.0
36 2 0.0
38 2 0.0
38 3 0.0
36 3 0.0
38 2 0.0
40 2 0.0
40 3 0.0
38 3 0.0
40 2 0.0
42 2 0.0
42 3 0.0
40 3 0.0
42 2 0.0
44 2 0.0
44 3 0.0
42 3 0.0
44 2 0.0
46 2 0.0
46 3 0.0
44 3 0.0
46 2 0.0
48 2 0.0
48 3 0.0
46 3 0.0
48 2 0.0
50 2 0.0
50 3 0.0
48 3 0.0
50 2 0.0
52 2 0.0
52 3 0.0
50 3 0.0
52 2 0.0
54 2 0.0
54 3 0.0
52 3 0.0
54 2 0.0
56 2 0.0
56 3 0.0
54 3 0.0
56 2 0.0
58 2 0.0
58 3 0.0
56 3 0.0
58 2 0.0
60 2 0.0
60 3 0.0
58 3 0.0
60 2 0.0
62 2 0.0
62 3 0.0
60 3 0.0
62 2 0.0
64 2 0.0
64 3 0.0
62 3 0.0
64 2 0.0
66 2 0.0
66 3 0.0
64 3 0.0
66 2 0.0
68 2 0.0
68 3 0.0
66 3 0.0
68 2 0.0
70 2 0.0
70 3 0.0
68 3 0.0
70 2 0.0
72 2 0.0
72 3 0.0
70 3 0.0
72 2 0.0
74 2 0.0
74 3 0.0
72 3 0.0
74 2 0.0
76 2 0.0
76 3 0.0
74 3 0.0
76 2 0.0
78 2 0.0
78 3 0.0
76 3 0.0
78 2 0.0
80 2 0.0
80 3 0.0
78 3 0.0
80 2 0.0
82 2 0.0
82 3 0.0
80 3 0.0
82 2 0.0
84 2 0.0
84 3 0.0
82 3 0.0
84 2 0.0
86 2 0.0
86 3 0.0
84 3 0.0
86 2 0.0
88 2 0.0
88 3 0.0
86 3 0.0
88 2 0.0
90 2 0.0
90 3 0.0
88 3 0.0
90 2 0.0
92 2 0.0
92 3 0.0
90 3 0.0
92 2 0.0
94 2 0.0
94 3 0.0
92 3 0.0
94 2 0.0
96 2 0.0
96 3 0.0
94 3 0.0
96 2 0.0
98 2 0.0
98 3 0.0
96 3 0.0
98 2 0.0
100 2 0.0
100 3 0.0
98 3 0.0
0 3 0.0
2 3 0.0
2 4 0.0
0 4 0.0
2 3 0.0
4 3 0.0
4 4 0.0
2 4 0.0
4 3 0.0
6 3 0.0
6 4 0.0
4 4 0.0
6 3 0.0
8 3 0.0
8 4 0.0
6 4 0.0
8 3 0.0
10 3 0.0
10 4 0.0
8 4 0.0
10 3 0.0
12 3 0.0
12 4 0.0
10 4 0.0
12 3 0.0
14 3 0.0
14 4 0.0
12 4 0.0
14 3 0.0
16 3 0.0
16 4 0.0
14 4 0.0
16 3 0.0
18 3 0.0
18 4 0.0
16 4 0.0
18 3 0.0
20 3 0.0
20 4 0.0
18 4 0.0
20 3 0.0
22 3 0.0
22 4 0.0
20 4 0.0
22 3 0.0
24 3 0.0
24 4 0.0
22 4 0.0
24 3 0.0
26 3 0.0
26 4 0.0
24 4 0.0
26 3 0.0
28 3 0.0
28 4 0.0
26 4 0.0
28 3 0.0
30 3 0.0
30 4 0.0
28 4 0.0
30 3 0.0
32 3 0.0
32 4 0.0
30 4 0.0
32 3 0.0
34 3 0.0
34 4 0.0
32 4 0.0
34 3 0.0
36 3 0.0
36 4 0.0
34 4 0.0
36 3 0.0
38 3 0.0
38 4 0.0
36 4 0.0
38 3 0.0
40 3 0.0
40 4 0.0
38 4 0.0
40 3 0.0
42 3 0.0
42 4 0.0
40 4 0.0
42 3 0.0
44 3 0.0
44 4 0.0
42 4 0.0
44 3 0.0
46 3 0.0
46 4 0.0
44 4 0.0
46 3 0.0
48 3 0.0
48 4 0.0
46 4 0.0
48 3 0.0
50 3 0.0
50 4 0.0
48 4 0.0
50 3 0.0
52 3 0.0
52 4 0.0
50 4 0.0
52 3 0.0
54 3 0.0
54 4 0.0
52 4 0.0
54 3 0.0
56 3 0.0
56 4 0.0
54 4 0.0
56 3 0.0
58 3 0.0
58 4 0.0
56 4 0.0
58 3 0.0
60 3 0.0
60 4 0.0
58 4 0.0
60 3 0.0
62 3 0.0
62 4 0.0
60 4 0.0
62 3 0.0
64 3 0.0
64 4 0.0
62 4 0.0
64 3 0.0
66 3 0.0
66 4 0.0
64 4 0.0
66 3 0.0
68 3 0.0
68 4 0.0
66 4 0.0
68 3 0.0
70 3 0.0
70 4 0.0
68 4 0.0
70 3 0.0
72 3 0.0
72 4 0.0
70 4 0.0
72 3 0.0
74 3 0.0
74 4 0.0
72 4 0.0
74 3 0.0
76 3 0.0
76 4 0.0
74 4 0.0
76 3 0.0
78 3 0.0
78 4 0.0
76 4 0.0
78 3 0.0
80 3 0.0
80 4 0.0
78 4 0.0
80 3 0.0
82 3 0.0
82 4 0.0
80 4 0.0
82 3 0.0
84 3 0.0
84 4 0.0
82 4 0.0
84 3 0.0
86 3 0.0
86 4 0.0
84 4 0.0
86 3 0.0
88 3 0.0
88 4 0.0
86 4 0.0
88 3 0.0
90 3 0.0
90 4 0.0
88 4 0.0
90 3 0.0
92 3 0.0
92 4 0.0
90 4 0.0
92 3 0.0
94 3 0.0
94 4 0.0
92 4 0.0
94 3 0.0
96 3 0.0
96 4 0.0
94 4 0.0
96 3 0.0
98 3 0.0
98 4 0.0
96 4 0.0
98 3 0.0
100 3 0.0
100 4 0.0
98 4 0.0
0 4 0.0
2 4 0.0
2 5 0.0
0 5 0.0
2 4 0.0
4 4 0.0
4 5 0.0
2 5 0.0
4 4 0.0
6 4 0.0
6 5 0.0
4 5 0.0
6 4 0.0
8 4 0.0
8 5 0.0
6 5 0.0
8 4 0.0
10 4 0.0
10 5 0.0
8 5 0.0
10 4 0.0
12 4 0.0
12 5 0.0
10 5 0.0
12 4 0.0
14 4 0.0
14 5 0.0
12 5 0.0
14 4 0.0
16 4 0.0
16 5 0.0
14 5 0.0
16 4 0.0
18 4 0.0
18 5 0.0
16 5 0.0
18 4 0.0
20 4 0.0
20 5 0.0
18 5 0.0
20 4 0.0
22 4 0.0
22 5 0.0
20 5 0.0
22 4 0.0
24 4 0.0
24 5 0.0
22 5 0.0
24 4 0.0
26 4 0.0
26 5 0.0
24 5 0.0
26 4 0.0
28 4 0.0
28 5 0.0
26 5 0.0
28 4 0.0
30 4 0.0
30 5 0.0
28 5 0.0
30 4 0.0
32 4 0.0
32 5 0.0
30 5 0.0
32 4 0.0
34 4 0.0
34 5 0.0
32 5 0.0
34 4 0.0
36 4 0.0
36 5 0.0
34 5 0.0
36 4 0.0
38 4 0.0
38 5 0.0
36 5 0.0
38 4 0.0
40 4 0.0
40 5 0.0
38 5 0.0
40 4 0.0
42 4 0.0
42 5 0.0
40 5 0.0
42 4 0.0
44 4 0.0
44 5 0.0
42 5 0.0
44 4 0.0
46 4 0.0
46 5 0.0
44 5 0.0
46 4 0.0
48 4 0.0
48 5 0.0
46 5 0.0
48 4 0.0
50 4 0.0
50 5 0.0
48 5 0.0
50 4 0.0
52 4 0.0
52 5 0.0
50 5 0.0
52 4 0.0
54 4 0.0
54 5 0.0
52 5 0.0
54 4 0.0
56 4 0.0
56 5 0.0
54 5 0.0
56 4 0.0
58 4 0.0
58 5 0.0
56 5 0.0
58 4 0.0
60 4 0.0
60 5 0.0
58 5 0.0
60 4 0.0
62 4 0.0
62 5 0.0
60 5 0.0
62 4 0.0
64 4 0.0
64 5 0.0
62 5 0.0
64 4 0.0
66 4 0.0
66 5 0.0
64 5 0.0
66 4 0.0
68 4 0.0
68 5 0.0
66 5 0.0
68 4 0.0
70 4 0.0
70 5 0.0
68 5 0.0
70 4 0.0
72 4 0.0
72 5 0.0
70 5 0.0
72 4 0.0
74 4 0.0
74 5 0.0
72 5 0.0
74 4 0.0
76 4 0.0
76 5 0.0
74 5 0.0
76 4 0.0
78 4 0.0
78 5 0.0
76 5 0.0
78 4 0.0
80 4 0.0
80 5 0.0
78 5 0.0
80 4 0.0
82 4 0.0
82 5 0.0
80 5 0.0
82 4 0.0
84 4 0.0
84 5 0.0
82 5 0.0
84 4 0.0
86 4 0.0
86 5 0.0
84 5 0.0
86 4 0.0
88 4 0.0
88 5 0.0
86 5 0.0
88 4 0.0
90 4 0.0
90 5 0.0
88 5 0.0
90 4 0.0
92 4 0.0
92 5 0.0
90 5 0.0
92 4 0.0
94 4 0.0
94 5 0.0
92 5 0.0
94 4 0.0
96 4 0.0
96 5 0.0
94 5 0.0
96 4 0.0
98 4 0.0
98 5 0.0
96 5 0.0
98 4 0.0
100 4 0.0
100 5 0.0
98 5 0.0
0 5 0.0
2 5 0.0
2 6 0.0
0 6 0.0
2 5 0.0
4 5 0.0
4 6 0.0
2 6 0.0
4 5 0.0
6 5 0.0
6 6 0.0
4 6 0.0
6 5 0.0
8 5 0.0
8 6 0.0
6 6 0.0
8 5 0.0
10 5 0.0
10 6 0.0
8 6 0.0
10 5 0.0
12 5 0.0
12 6 0.0
10 6 0.0
12 5 0.0
14 5 0.0
14 6 0.0
12 6 0.0
14 5 0.0
16 5 0.0
16 6 0.0
14 6 0.0
16 5 0.0
18 5 0.0
18 6 0.0
16 6 0.0
18 5 0.0
20 5 0.0
20 6 0.0
18 6 0.0
20 5 0.0
22 5 0.0
22 6 0.0
20 6 0.0
22 5 0.0
24 5 0.0
24 6 0.0
22 6 0.0
24 5 0.0
26 5 0.0
26 6 0.0
24 6 0.0
26 5 0.0
28 5 0.0
28 6 0.0
26 6 0.0
28 5 0.0
30 5 0.0
30 6 0.0
28 6 0.0
30 5 0.0
32 5 0.0
32 6 0.0
30 6 0.0
32 5 0.0
34 5 0.0
34 6 0.0
32 6 0.0
34 5 0.0
36 5 0.0
36 6 0.0
34 6 0.0
36 5 0.0
38 5 0.0
38 6 0.0
36 6 0.0
38 5 0.0
40 5 0.0
40 6 0.0
38 6 0.0
40 5 0.0
42 5 0.0
42 6 0.0
40 6 0.0
42 5 0.0
44 5 0.0
44 6 0.0
42 6 0.0
44 5 0.0
46 5 0.0
46 6 0.0
44 6 0.0
46 5 0.0
48 5 0.0
48 6 0.0
46 6 0.0
48 5 0.0
50 5 0.0
50 6 0.0
48 6 0.0
50 5 0.0
52 5 0.0
52 6 0.0
50 6 0.0
52 5 0.0
54 5 0.0
54 6 0.0
52 6 0.0
54 5 0.0
56 5 0.0
56 6 0.0
54 6 0.0
56 5 0.0
58 5 0.0
58 6 0.0
56 6 0.0
58 5 0.0
60 5 0.0
60 6 0.0
58 6 0.0
60 5 0.0
62 5 0.0
62 6 0.0
60 6 0.0
62 5 0.0
64 5 0.0
64 6 0.0
62 6 0.0
64 5 0.0
66 5 0.0
66 6 0.0
64 6 0.0
66 5 0.0
68 5 0.0
68 6 0.0
66 6 0.0
68 5 0.0
70 5 0.0
70 6 0.0
68 6 0.0
70 5 0.0
72 5 0.0
72 6 0.0
70 6 0.0
72 5 0.0
74 5 0.0
74 6 0.0
72 6 0.0
74 5 0.0
76 5 0.0
76 6 0.0
74 6 0.0
76 5 0.0
78 5 0.0
78 6 0.0
76 6 0.0
78 5 0.0
80 5 0.0
80 6 0.0
78 6 0.0
80 5 0.0
82 5 0.0
82 6 0.0
80 6 0.0
82 5 0.0
84 5 0.0
84 6 0.0
82 6 0.0
84 5 0.0
86 5 0.0
86 6 0.0
84 6 0.0
86 5 0.0
88 5 0.0
88 6 0.0
86 6 0.0
88 5 0.0
90 5 0.0
90 6 0.0
88 6 0.0
90 5 0.0
92 5 0.0
92 6 0.0
90 6 0.0
92 5 0.0
94 5 0.0
94 6 0.0
92 6 0.0
94 5 0.0
96 5 0.0
96 6 0.0
94 6 0.0
96 5 0.0
98 5 0.0
98 6 0.0
96 6 0.0
98 5 0.0
100 5 0.0
100 6 0.0
98 6 0.0
0 6 0.0
2 6 0.0
2 7 0.0
0 7 0.0
2 6 0.0
4 6 0.0
4 7 0.0
2 7 0.0
4 6 0.0
6 6 0.0
6 7 0.0
4 7 0.0
6 6 0.0
8 6 0.0
8 7 0.0
6 7 0.0
8 6 0.0
10 6 0.0
10 7 0.0
8 7 0.0
10 6 0.0
12 6 0.0
12 7 0.0
10 7 0.0
12 6 0.0
14 6 0.0
14 7 0.0
12 7 0.0
14 6 0.0
16 6 0.0
16 7 0.0
14 7 0.0
16 6 0.0
18 6 0.0
18 7 0.0
16 7 0.0
18 6 0.0
20 6 0.0
20 7 0.0
18 7 0.0
20 6 0.0
22 6 0.0
22 7 0.0
20 7 0.0
22 6 0.0
24 6 0.0
24 7 0.0
22 7 0.0
24 6 0.0
26 6 0.0
26 7 0.0
24 7 0.0
26 6 0.0
28 6 0.0
28 7 0.0
26 7 0.0
28 6 0.0
30 6 0.0
30 7 0.0
28 7 0.0
30 6 0.0
32 6 0.0
32 7 0.0
30 7 0.0
32 6 0.0
34 6 0.0
34 7 0.0
32 7 0.0
34 6 0.0
36 6 0.0
36 7 0.0
34 7 0.0
36 6 0.0
38 6 0.0
38 7 0.0
36 7 0.0
38 6 0.0
40 6 0.0
40 7 0.0
38 7 0.0
40 6 0.0
42 6 0.0
42 7 0.0
40 7 0.0
42 6 0.0
44 6 0.0
44 7 0.0
42 7 0.0
44 6 0.0
46 6 0.0
46 7 0.0
44 7 0.0
46 6 0.0
48 6 0.0
48 7 0.0
46 7 0.0
48 6 0.0
50 6 0.0
50 7 0.0
48 7 0.0
50 6 0.0
52 6 0.0
52 7 0.0
50 7 0.0
52 6 0.0
54 6 0.0
54 7 0.0
52 7 0.0
54 6 0.0
56 6 0.0
56 7 0.0
54 7 0.0
56 6 0.0
58 6 0.0
58 7 0.0
56 7 0.0
58 6 0.0
60 6 0.0
60 7 0.0
58 7 0.0
60 6 0.0
62 6 0.0
62 7 0.0
60 7 0.0
62 6 0.0
64 6 0.0
64 7 0.0
62 7 0.0
64 6 0.0
66 6 0.0
66 7 0.0
64 7 0.0
66 6 0.0
68 6 0.0
68 7 0.0
66 7 0.0
68 6 0.0
70 6 0.0
70 7 0.0
68 7 0.0
70 6 0.0
72 6 0.0
72 7 0.0
70 7 0.0
72 6 0.0
74 6 0.0
74 7 0.0
72 7 0.0
74 6 0.0
76 6 0.0
76 7 0.0
74 7 0.0
76 6 0.0
78 6 0.0
78 7 0.0
76 7 0.0
78 6 0.0
80 6 0.0
80 7 0.0
78 7 0.0
80 6 0.0
82 6 0.0
82 7 0.0
80 7 0.0
82 6 0.0
84 6 0.0
84 7 0.0
82 7 0.0
84 6 0.0
86 6 0.0
86 7 0.0
84 7 0.0
86 6 0.0
88 6 0.0
88 7 0.0
86 7 0.0
88 6 0.0
90 6 0.0
90 7 0.0
88 7 0.0
90 6 0.0
92 6 0.0
92 7 0.0
90 7 0.0
92 6 0.0
94 6 0.0
94 7 0.0
92 7 0.0
94 6 0.0
96 6 0.0
96 7 0.0
94 7 0.0
96 6 0.0
98 6 0.0
98 7 0.0
96 7 0.0
98 6 0.0
100 6 0.0
100 7 0.0
98 7 0.0
0 7 0.0
2 7 0.0
2 8 0.0
0 8 0.0
2 7 0.0
4 7 0.0
4 8 0.0
2 8 0.0
4 7 0.0
6 7 0.0
6 8 0.0
4 8 0.0
6 7 0.0
8 7 0.0
8 8 0.0
6 8 0.0
8 7 0.0
10 7 0.0
10 8 0.0
8 8 0.0
10 7 0.0
12 7 0.0
12 8 0.0
10 8 0.0
12 7 0.0
14 7 0.0
14 8 0.0
12 8 0.0
14 7 0.0
16 7 0.0
16 8 0.0
14 8 0.0
16 7 0.0
18 7 0.0
18 8 0.0
16 8 0.0
18 7 0.0
20 7 0.0
20 8 0.0
18 8 0.0
20 7 0.0
22 7 0.0
22 8 0.0
20 8 0.0
22 7 0.0
24 7 0.0
24 8 0.0
22 8 0.0
24 7 0.0
26 7 0.0
26 8 0.0
24 8 0.0
26 7 0.0
28 7 0.0
28 8 0.0
26 8 0.0
28 7 0.0
30 7 0.0
30 8 0.0
28 8 0.0
30 7 0.0
32 7 0.0
32 8 0.0
30 8 0.0
32 7 0.0
34 7 0.0
34 8 0.0
32 8 0.0
34 7 0.0
36 7 0.0
36 8 0.0
34 8 0.0
36 7 0.0
38 7 0.0
38 8 0.0
36 8 0.0
38 7 0.0
40 7 0.0
40 8 0.0
38 8 0.0
40 7 0.0
42 7 0.0
42 8 0.0
40 8 0.0
42 7 0.0
44 7 0.0
44 8 0.0
42 8 0.0
44 7 0.0
46 7 0.0
46 8 0.0
44 8 0.0
46 7 0.0
48 7 0.0
48 8 0.0
46 8 0.0
48 7 0.0
50 7 0.0
50 8 0.0
48 8 0.0
50 7 0.0
52 7 0.0
52 8 0.0
50 8 0.0
52 7 0.0
54 7 0.0
54 8 0.0
52 8 0.0
54 7 0.0
56 7 0.0
56 8 0.0
54 8 0.0
56 7 0.0
58 7 0.0
58 8 0.0
56 8 0.0
58 7 0.0
60 7 0.0
60 8 0.0
58 8 0.0
60 7 0.0
62 7 0.0
62 8 0.0
60 8 0.0
62 7 0.0
64 7 0.0
64 8 0.0
62 8 0.0
64 7 0.0
66 7 0.0
66 8 0.0
64 8 0.0
66 7 0.0
68 7 0.0
68 8 0.0
66 8 0.0
68 7 0.0
70 7 0.0
70 8 0.0
68 8 0.0
70 7 0.0
72 7 0.0
72 8 0.0
70 8 0.0
72 7 0.0
74 7 0.0
74 8 0.0
72 8 0.0
74 7 0.0
76 7 0.0
76 8 0.0
74 8 0.0
76 7 0.0
78 7 0.0
78 8 0.0
76 8 0.0
78 7 0.0
80 7 0.0
80 8 0.0
78 8 0.0
80 7 0.0
82 7 0.0
82 8 0.0
80 8 0.0
82 7 0.0
84 7 0.0
84 8 0.0
82 8 0.0
84 7 0.0
86 7 0.0
86 8 0.0
84 8 0.0
86 7 0.0
88 7 0.0
88 8 0.0
86 8 0.0
88 7 0.0
90 7 0.0
90 8 0.0
88 8 0.0
90 7 0.0
92 7 0.0
92 8 0.0
90 8 0.0
92 7 0.0
94 7 0.0
94 8 0.0
92 8 0.0
94 7 0.0
96 7 0.0
96 8 0.0
94 8 0.0
96 7 0.0
98 7 0.0
98 8 0.0
96 8 0.0
98 7 0.0
100 7 0.0
100 8 0.0
98 8 0.0
0 8 0.0
2 8 0.0
2 9 0.0
0 9 0.0
2 8 0.0
4 8 0.0
4 9 0.0
2 9 0.0
4 8 0.0
6 8 0.0
6 9 0.0
4 9 0.0
6 8 0.0
8 8 0.0
8 9 0.0
6 9 0.0
8 8 0.0
10 8 0.0
10 9 0.0
8 9 0.0
10 8 0.0
12 8 0.0
12 9 0.0
10 9 0.0
12 8 0.0
14 8 0.0
14 9 0.0
12 9 0.0
14 8 0.0
16 8 0.0
16 9 0.0
14 9 0.0
16 8 0.0
18 8 0.0
18 9 0.0
16 9 0.0
18 8 0.0
20 8 0.0
20 9 0.0
18 9 0.0
20 8 0.0
22 8 0.0
22 9 0.0
20 9 0.0
22 8 0.0
24 8 0.0
24 9 0.0
22 9 0.0
24 8 0.0
26 8 0.0
26 9 0.0
24 9 0.0
26 8 0.0
28 8 0.0
28 9 0.0
26 9 0.0
28 8 0.0
30 8 0.0
30 9 0.0
28 9 0.0
30 8 0.0
32 8 0.0
32 9 0.0
30 9 0.0
32 8 0.0
34 8 0.0
34 9 0.0
32 9 0.0
34 8 0.0
36 8 0.0
36 9 0.0
34 9 0.0
36 8 0.0
38 8 0.0
38 9 0.0
36 9 0.0
38 8 0.0
40 8 0.0
40 9 0.0
38 9 0.0
40 8 0.0
42 8 0.0
42 9 0.0
40 9 0.0
42 8 0.0
44 8 0.0
44 9 0.0
42 9 0.0
44 8 0.0
46 8 0.0
46 9 0.0
44 9 0.0
46 8 0.0
48 8 0.0
48 9 0.0
46 9 0.0
48 8 0.0
50 8 0.0
50 9 0.0
48 9 0.0
50 8 0.0
52 8 0.0
52 9 0.0
50 9 0.0
52 8 0.0
54 8 0.0
54 9 0.0
52 9 0.0
54 8 0.0
56 8 0.0
56 9 0.0
54 9 0.0
56 8 0.0
58 8 0.0
58 9 0.0
56 9 0.0
58 8 0.0
60 8 0.0
60 9 0.0
58 9 0.0
60 8 0.0
62 8 0.0
62 9 0.0
60 9 0.0
62 8 0.0
64 8 0.0
64 9 0.0
62 9 0.0
64 8 0.0
66 8 0.0
66 9 0.0
64 9 0.0
66 8 0.0
68 8 0.0
68 9 0.0
66 9 0.0
68 8 0.0
70 8 0.0
70 9 0.0
68 9 0.0
70 8 0.0
72 8 0.0
72 9 0.0
70 9 0.0
72 8 0.0
74 8 0.0
74 9 0.0
72 9 0.0
74 8 0.0
76 8 0.0
76 9 0.0
74 9 0.0
76 8 0.0
78 8 0.0
78 9 0.0
76 9 0.0
78 8 0.0
80 8 0.0
80 9 0.0
78 9 0.0
80 8 0.0
82 8 0.0
82 9 0.0
80 9 0.0
82 8 0.0
84 8 0.0
84 9 0.0
82 9 0.0
84 8 0.0
86 8 0.0
86 9 0.0
84 9 0.0
86 8 0.0
88 8 0.0
88 9 0.0
86 9 0.0
88 8 0.0
90 8 0.0
90 9 0.0
88 9 0.0
90 8 0.0
92 8 0.0
92 9 0.0
90 9 0.0
92 8 0.0
94 8 0.0
94 9 0.0
92 9 0.0
94 8 0.0
96 8 0.0
96 9 0.0
94 9 0.0
96 8 0.0
98 8 0.0
98 9 0.0
96 9 0.0
98 8 0.0
100 8 0.0
100 9 0.0
98 9 0.0
0 9 0.0
2 9 0.0
2 10 0.0
0 10 0.0
2 9 0.0
4 9 0.0
4 10 0.0
2 10 0.0
4 9 0.0
6 9 0.0
6 10 0.0
4 10 0.0
6 9 0.0
8 9 0.0
8 10 0.0
6 10 0.0
8 9 0.0
10 9 0.0
10 10 0.0
8 10 0.0
10 9 0.0
12 9 0.0
12 10 0.0
10 10 0.0
12 9 0.0
14 9 0.0
14 10 0.0
12 10 0.0
14 9 0.0
16 9 0.0
16 10 0.0
14 10 0.0
16 9 0.0
18 9 0.0
18 10 0.0
16 10 0.0
18 9 0.0
20 9 0.0
20 10 0.0
18 10 0.0
20 9 0.0
22 9 0.0
22 10 0.0
20 10 0.0
22 9 0.0
24 9 0.0
24 10 0.0
22 10 0.0
24 9 0.0
26 9 0.0
26 10 0.0
24 10 0.0
26 9 0.0
28 9 0.0
28 10 0.0
26 10 0.0
28 9 0.0
30 9 0.0
30 10 0.0
28 10 0.0
30 9 0.0
32 9 0.0
32 10 0.0
30 10 0.0
32 9 0.0
34 9 0.0
34 10 0.0
32 10 0.0
34 9 0.0
36 9 0.0
36 10 0.0
34 10 0.0
36 9 0.0
38 9 0.0
38 10 0.0
36 10 0.0
38 9 0.0
40 9 0.0
40 10 0.0
38 10 0.0
40 9 0.0
42 9 0.0
42 10 0.0
40 10 0.0
42 9 0.0
44 9 0.0
44 10 0.0
42 10 0.0
44 9 0.0
46 9 0.0
46 10 0.0
44 10 0.0
46 9 0.0
48 9 0.0
48 10 0.0
46 10 0.0
48 9 0.0
50 9 0.0
50 10 0.0
48 10 0.0
50 9 0.0
52 9 0.0
52 10 0.0
50 10 0.0
52 9 0.0
54 9 0.0
54 10 0.0
52 10 0.0
54 9 0.0
56 9 0.0
56 10 0.0
54 10 0.0
56 9 0.0
58 9 0.0
58 10 0.0
56 10 0.0
58 9 0.0
60 9 0.0
60 10 0.0
58 10 0.0
60 9 0.0
62 9 0.0
62 10 0.0
60 10 0.0
62 9 0.0
64 9 0.0
64 10 0.0
62 10 0.0
64 9 0.0
66 9 0.0
66 10 0.0
64 10 0.0
66 9 0.0
68 9 0.0
68 10 0.0
66 10 0.0
68 9 0.0
70 9 0.0
70 10 0.0
68 10 0.0
70 9 0.0
72 9 0.0
72 10 0.0
70 10 0.0
72 9 0.0
74 9 0.0
74 10 0.0
72 10 0.0
74 9 0.0
76 9 0.0
76 10 0.0
74 10 0.0
76 9 0.0
78 9 0.0
78 10 0.0
76 10 0.0
78 9 0.0
80 9 0.0
80 10 0.0
78 10 0.0
80 9 0.0
82 9 0.0
82 10 0.0
80 10 0.0
82 9 0.0
84 9 0.0
84 10 0.0
82 10 0.0
84 9 0.0
86 9 0.0
86 10 0.0
84 10 0.0
86 9 0.0
88 9 0.0
88 10 0.0
86 10 0.0
88 9 0.0
90 9 0.0
90 10 0.0
88 10 0.0
90 9 0.0
92 9 0.0
92 10 0.0
90 10 0.0
92 9 0.0
94 9 0.0
94 10 0.0
92 10 0.0
94 9 0.0
96 9 0.0
96 10 0.0
94 10 0.0
96 9 0.0
98 9 0.0
98 10 0.0
96 10 0.0
98 9 0.0
100 9 0.0
100 10 0.0
98 10 0.0
0 10 0.0
2 10 0.0
2 11 0.0
0 11 0.0
2 10 0.0
4 10 0.0
4 11 0.0
2 11 0.0
4 10 0.0
6 10 0.0
6 11 0.0
4 11 0.0
6 10 0.0
8 10 0.0
8 11 0.0
6 11 0.0
8 10 0.0
10 10 0.0
10 11 0.0
8 11 0.0
10 10 0.0
12 10 0.0
12 11 0.0
10 11 0.0
12 10 0.0
14 10 0.0
14 11 0.0
12 11 0.0
14 10 0.0
16 10 0.0
16 11 0.0
14 11 0.0
16 10 0.0
18 10 0.0
18 11 0.0
16 11 0.0
18 10 0.0
20 10 0.0
20 11 0.0
18 11 0.0
20 10 0.0
22 10 0.0
22 11 0.0
20 11 0.0
22 10 0.0
24 10 0.0
24 11 0.0
22 11 0.0
24 10 0.0
26 10 0.0
26 11 0.0
24 11 0.0
26 10 0.0
28 10 0.0
28 11 0.0
26 11 0.0
28 10 0.0
30 10 0.0
30 11 0.0
28 11 0.0
30 10 0.0
32 10 0.0
32 11 0.0
30 11 0.0
32 10 0.0
34 10 0.0
34 11 0.0
32 11 0.0
34 10 0.0
36 10 0.0
36 11 0.0
34 11 0.0
36 10 0.0
38 10 0.0
38 11 0.0
36 11 0.0
38 10 0.0
40 10 0.0
40 11 0.0
38 11 0.0
40 10 0.0
42 10 0.0
42 11 0.0
40 11 0.0
42 10 0.0
44 10 0.0
44 11 0.0
42 11 0.0
44 10 0.0
46 10 0.0
46 11 0.0
44 11 0.0
46 10 0.0
48 10 0.0
48 11 0.0
46 11 0.0
48 10 0.0
50 10 0.0
50 11 0.0
48 11 0.0
50 10 0.0
52 10 0.0
52 11 0.0
50 11 0.0
52 10 0.0
54 10 0.0
54 11 0.0
52 11 0.0
54 10 0.0
56 10 0.0
56 11 0.0
54 11 0.0
56 10 0.0
58 10 0.0
58 11 0.0
56 11 0.0
58 10 0.0
60 10 0.0
60 11 0.0
58 11 0.0
60 10 0.0
62 10 0.0
62 11 0.0
60 11 0.0
62 10 0.0
64 10 0.0
64 11 0.0
62 11 0.0
64 10 0.0
66 10 0.0
66 11 0.0
64 11 0.0
66 10 0.0
68 10 0.0
68 11 0.0
66 11 0.0
68 10 0.0
70 10 0.0
70 11 0.0
68 11 0.0
70 10 0.0
72 10 0.0
72 11 0.0
70 11 0.0
72 10 0.0
74 10 0.0
74 11 0.0
72 11 0.0
74 10 0.0
76 10 0.0
76 11 0.0
74 11 0.0
76 10 0.0
78 10 0.0
78 11 0.0
76 11 0.0
78 10 0.0
80 10 0.0
80 11 0.0
78 11 0.0
80 10 0.0
82 10 0.0
82 11 0.0
80 11 0.0
82 10 0.0
84 10 0.0
84 11 0.0
82 11 0.0
84 10 0.0
86 10 0.0
86 11 0.0
84 11 0.0
86 10 0.0
88 10 0.0
88 11 0.0
86 11 0.0
88 10 0.0
90 10 0.0
90 11 0.0
88 11 0.0
90 10 0.0
92 10 0.0
92 11 0.0
90 11 0.0
92 10 0.0
94 10 0.0
94 11 0.0
92 11 0.0
94 10 0.0
96 10 0.0
96 11 0.0
94 11 0.0
96 10 0.0
98 10 0.0
98 11 0.0
96 11 0.0
98 10 0.0
100 10 0.0
100 11 0.0
98 11 0.0
0 11 0.0
2 11 0.0
2 12 0.0
0 12 0.0
2 11 0.0
4 11 0.0
4 12 0.0
2 12 0.0
4 11 0.0
6 11 0.0
6 12 0.0
4 12 0.0
6 11 0.0
8 11 0.0
8 12 0.0
6 12 0.0
8 11 0.0
10 11 0.0
10 12 0.0
8 12 0.0
10 11 0.0
12 11 0.0
12 12 0.0
10 12 0.0
12 11 0.0
14 11 0.0
14 12 0.0
12 12 0.0
14 11 0.0
16 11 0.0
16 12 0.0
14 12 0.0
16 11 0.0
18 11 0.0
18 12 0.0
16 12 0.0
18 11 0.0
20 11 0.0
20 12 0.0
18 12 0.0
20 11 0.0
22 11 0.0
22 12 0.0
20 12 0.0
22 11 0.0
24 11 0.0
24 12 0.0
22 12 0.0
24 11 0.0
26 11 0.0
26 12 0.0
24 12 0.0
26 11 0.0
28 11 0.0
28 12 0.0
26 12 0.0
28 11 0.0
30 11 0.0
30 12 0.0
28 12 0.0
30 11 0.0
32 11 0.0
32 12 0.0
30 12 0.0
32 11 0.0
34 11 0.0
34 12 0.0
32 12 0.0
34 11 0.0
36 11 0.0
36 12 0.0
34 12 0.0
36 11 0.0
38 11 0.0
38 12 0.0
36 12 0.0
38 11 0.0
40 11 0.0
40 12 0.0
38 12 0.0
40 11 0.0
42 11 0.0
42 12 0.0
40 12 0.0
42 11 0.0
44 11 0.0
44 12 0.0
42 12 0.0
44 11 0.0
46 11 0.0
46 12 0.0
44 12 0.0
46 11 0.0
48 11 0.0
48 12 0.0
46 12 0.0
48 11 0.0
50 11 0.0
50 12 0.0
48 12 0.0
50 11 0.0
52 11 0.0
52 12 0.0
50 12 0.0
52 11 0.0
54 11 0.0
54 12 0.0
52 12 0.0
54 11 0.0
56 11 0.0
56 12 0.0
54 12 0.0
56 11 0.0
58 11 0.0
58 12 0.0
56 12 0.0
58 11 0.0
60 11 0.0
60 12 0.0
58 12 0.0
60 11 0.0
62 11 0.0
62 12 0.0
60 12 0.0
62 11 0.0
64 11 0.0
64 12 0.0
62 12 0.0
64 11 0.0
66 11 0.0
66 12 0.0
64 12 0.0
66 11 0.0
68 11 0.0
68 12 0.0
66 12 0.0
68 11 0.0
70 11 0.0
70 12 0.0
68 12 0.0
70 11 0.0
72 11 0.0
72 12 0.0
70 12 0.0
72 11 0.0
74 11 0.0
74 12 0.0
72 12 0.0
74 11 0.0
76 11 0.0
76 12 0.0
74 12 0.0
76 11 0.0
78 11 0.0
78 12 0.0
76 12 0.0
78 11 0.0
80 11 0.0
80 12 0.0
78 12 0.0
80 11 0.0
82 11 0.0
82 12 0.0
80 12 0.0
82 11 0.0
84 11 0.0
84 12 0.0
82 12 0.0
84 11 0.0
86 11 0.0
86 12 0.0
84 12 0.0
86 11 0.0
88 11 0.0
88 12 0.0
86 12 0.0
88 11 0.0
90 11 0.0
90 12 0.0
88 12 0.0
90 11 0.0
92 11 0.0
92 12 0.0
90 12 0.0
92 11 0.0
94 11 0.0
94 12 0.0
92 12 0.0
94 11 0.0
96 11 0.0
96 12 0.0
94 12 0.0
96 11 0.0
98 11 0.0
98 12 0.0
96 12 0.0
98 11 0.0
100 11 0.0
100 12 0.0
98 12 0.0
0 12 0.0
2 12 0.0
2 13 0.0
0 13 0.0
2 12 0.0
4 12 0.0
4 13 0.0
2 13 0.0
4 12 0.0
6 12 0.0
6 13 0.0
4 13 0.0
6 12 0.0
8 12 0.0
8 13 0.0
6 13 0.0
8 12 0.0
10 12 0.0
10 13 0.0
8 13 0.0
10 12 0.0
12 12 0.0
12 13 0.0
10 13 0.0
12 12 0.0
14 12 0.0
14 13 0.0
12 13 0.0
14 12 0.0
16 12 0.0
16 13 0.0
14 13 0.0
16 12 0.0
18 12 0.0
18 13 0.0
16 13 0.0
18 12 0.0
20 12 0.0
20 13 0.0
18 13 0.0
20 12 0.0
22 12 0.0
22 13 0.0
20 13 0.0
22 12 0.0
24 12 0.0
24 13 0.0
22 13 0.0
24 12 0.0
26 12 0.0
26 13 0.0
24 13 0.0
26 12 0.0
28 12 0.0
28 13 0.0
26 13 0.0
28 12 0.0
30 12 0.0
30 13 0.0
28 13 0.0
30 12 0.0
32 12 0.0
32 13 0.0
30 13 0.0
32 12 0.0
34 12 0.0
34 13 0.0
32 13 0.0
34 12 0.0
36 12 0.0
36 13 0.0
34 13 0.0
36 12 0.0
38 12 0.0
38 13 0.0
36 13 0.0
38 12 0.0
40 12 0.0
40 13 0.0
38 13 0.0
40 12 0.0
42 12 0.0
42 13 0.0
40 13 0.0
42 12 0.0
44 12 0.0
44 13 0.0
42 13 0.0
44 12 0.0
46 12 0.0
46 13 0.0
44 13 0.0
46 12 0.0
48 12 0.0
48 13 0.0
46 13 0.0
48 12 0.0
50 12 0.0
50 13 0.0
48 13 0.0
50 12 0.0
52 12 0.0
52 13 0.0
50 13 0.0
52 12 0.0
54 12 0.0
54 13 0.0
52 13 0.0
54 12 0.0
56 12 0.0
56 13 0.0
54 13 0.0
56 12 0.0
58 12 0.0
58 13 0.0
56 13 0.0
58 12 0.0
60 12 0.0
60 13 0.0
58 13 0.0
60 12 0.0
62 12 0.0
62 13 0.0
60 13 0.0
62 12 0.0
64 12 0.0
64 13 0.0
62 13 0.0
64 12 0.0
66 12 0.0
66 13 0.0
64 13 0.0
66 12 0.0
68 12 0.0
68 13 0.0
66 13 0.0
68 12 0.0
70 12 0.0
70 13 0.0
68 13 0.0
70 12 0.0
72 12 0.0
72 13 0.0
70 13 0.0
72 12 0.0
74 12 0.0
74 13 0.0
72 13 0.0
74 12 0.0
76 12 0.0
76 13 0.0
74 13 0.0
76 12 0.0
78 12 0.0
78 13 0.0
76 13 0.0
78 12 0.0
80 12 0.0
80 13 0.0
78 13 0.0
80 12 0.0
82 12 0.0
82 13 0.0
80 13 0.0
82 12 0.0
84 12 0.0
84 13 0.0
82 13 0.0
84 12 0.0
86 12 0.0
86 13 0.0
84 13 0.0
86 12 0.0
88 12 0.0
88 13 0.0
86 13 0.0
88 12 0.0
90 12 0.0
90 13 0.0
88 13 0.0
90 12 0.0
92 12 0.0
92 13 0.0
90 13 0.0
92 12 0.0
94 12 0.0
94 13 0.0
92 13 0.0
94 12 0.0
96 12 0.0
96 13 0.0
94 13 0.0
96 12 0.0
98 12 0.0
98 13 0.0
96 13 0.0
98 12 0.0
100 12 0.0
100 13 0.0
98 13 0.0
0 13 0.0
2 13 0.0
2 14 0.0
0 14 0.0
2 13 0.0
4 13 0.0
4 14 0.0
2 14 0.0
4 13 0.0
6 13 0.0
6 14 0.0
4 14 0.0
6 13 0.0
8 13 0.0
8 14 0.0
6 14 0.0
8 13 0.0
10 13 0.0
10 14 0.0
8 14 0.0
10 13 0.0
12 13 0.0
12 14 0.0
10 14 0.0
12 13 0.0
14 13 0.0
14 14 0.0
12 14 0.0
14 13 0.0
16 13 0.0
16 14 0.0
14 14 0.0
16 13 0.0
18 13 0.0
18 14 0.0
16 14 0.0
18 13 0.0
20 13 0.0
20 14 0.0
18 14 0.0
20 13 0.0
22 13 0.0
22 14 0.0
20 14 0.0
22 13 0.0
24 13 0.0
24 14 0.0
22 14 0.0
24 13 0.0
26 13 0.0
26 14 0.0
24 14 0.0
26 13 0.0
28 13 0.0
28 14 0.0
26 14 0.0
28 13 0.0
30 13 0.0
30 14 0.0
28 14 0.0
30 13 0.0
32 13 0.0
32 14 0.0
30 14 0.0
32 13 0.0
34 13 0.0
34 14 0.0
32 14 0.0
34 13 0.0
36 13 0.0
36 14 0.0
34 14 0.0
36 13 0.0
38 13 0.0
38 14 0.0
36 14 0.0
38 13 0.0
40 13 0.0
40 14 0.0
38 14 0.0
40 13 0.0
42 13 0.0
42 14 0.0
40 14 0.0
42 13 0.0
44 13 0.0
44 14 0.0
42 14 0.0
44 13 0.0
46 13 0.0
46 14 0.0
44 14 0.0
46 13 0.0
48 13 0.0
48 14 0.0
46 14 0.0
48 13 0.0
50 13 0.0
50 14 0.0
48 14 0.0
50 13 0.0
52 13 0.0
52 14 0.0
50 14 0.0
52 13 0.0
54 13 0.0
54 14 0.0
52 14 0.0
54 13 0.0
56 13 0.0
56 14 0.0
54 14 0.0
56 13 0.0
58 13 0.0
58 14 0.0
56 14 0.0
58 13 0.0
60 13 0.0
60 14 0.0
58 14 0.0
60 13 0.0
62 13 0.0
62 14 0.0
60 14 0.0
62 13 0.0
64 13 0.0
64 14 0.0
62 14 0.0
64 13 0.0
66 13 0.0
66 14 0.0
64 14 0.0
66 13 0.0
68 13 0.0
68 14 0.0
66 14 0.0
68 13 0.0
70 13 0.0
70 14 0.0
68 14 0.0
70 13 0.0
72 13 0.0
72 14 0.0
70 14 0.0
72 13 0.0
74 13 0.0
74 14 0.0
72 14 0.0
74 13 0.0
76 13 0.0
76 14 0.0
74 14 0.0
76 13 0.0
78 13 0.0
78 14 0.0
76 14 0.0
78 13 0.0
80 13 0.0
80 14 0.0
78 14 0.0
80 13 0.0
82 13 0.0
82 14 0.0
80 14 0.0
82 13 0.0
84 13 0.0
84 14 0.0
82 14 0.0
84 13 0.0
86 13 0.0
86 14 0.0
84 14 0.0
86 13 0.0
88 13 0.0
88 14 0.0
86 14 0.0
88 13 0.0
90 13 0.0
90 14 0.0
88 14 0.0
90 13 0.0
92 13 0.0
92 14 0.0
90 14 0.0
92 13 0.0
94 13 0.0
94 14 0.0
92 14 0.0
94 13 0.0
96 13 0.0
96 14 0.0
94 14 0.0
96 13 0.0
98 13 0.0
98 14 0.0
96 14 0.0
98 13 0.0
100 13 0.0
100 14 0.0
98 14 0.0
0 14 0.0
2 14 0.0
2 15 0.0
0 15 0.0
2 14 0.0
4 14 0.0
4 15 0.0
2 15 0.0
4 14 0.0
6 14 0.0
6 15 0.0
4 15 0.0
6 14 0.0
8 14 0.0
8 15 0.0
6 15 0.0
8 14 0.0
10 14 0.0
10 15 0.0
8 15 0.0
10 14 0.0
12 14 0.0
12 15 0.0
10 15 0.0
12 14 0.0
14 14 0.0
14 15 0.0
12 15 0.0
14 14 0.0
16 14 0.0
16 15 0.0
14 15 0.0
16 14 0.0
18 14 0.0
18 15 0.0
16 15 0.0
18 14 0.0
20 14 0.0
20 15 0.0
18 15 0.0
20 14 0.0
22 14 0.0
22 15 0.0
20 15 0.0
22 14 0.0
24 14 0.0
24 15 0.0
22 15 0.0
24 14 0.0
26 14 0.0
26 15 0.0
24 15 0.0
26 14 0.0
28 14 0.0
28 15 0.0
26 15 0.0
28 14 0.0
30 14 0.0
30 15 0.0
28 15 0.0
30 14 0.0
32 14 0.0
32 15 0.0
30 15 0.0
32 14 0.0
34 14 0.0
34 15 0.0
32 15 0.0
34 14 0.0
36 14 0.0
36 15 0.0
34 15 0.0
36 14 0.0
38 14 0.0
38 15 0.0
36 15 0.0
38 14 0.0
40 14 0.0
40 15 0.0
38 15 0.0
40 14 0.0
42 14 0.0
42 15 0.0
40 15 0.0
42 14 0.0
44 14 0.0
44 15 0.0
42 15 0.0
44 14 0.0
46 14 0.0
46 15 0.0
44 15 0.0
46 14 0.0
48 14 0.0
48 15 0.0
46 15 0.0
48 14 0.0
50 14 0.0
50 15 0.0
48 15 0.0
50 14 0.0
52 14 0.0
52 15 0.0
50 15 0.0
52 14 0.0
54 14 0.0
54 15 0.0
52 15 0.0
54 14 0.0
56 14 0.0
56 15 0.0
54 15 0.0
56 14 0.0
58 14 0.0
58 15 0.0
56 15 0.0
58 14 0.0
60 14 0.0
60 15 0.0
58 15 0.0
60 14 0.0
62 14 0.0
62 15 0.0
60 15 0.0
62 14 0.0
64 14 0.0
64 15 0.0
62 15 0.0
64 14 0.0
66 14 0.0
66 15 0.0
64 15 0.0
66 14 0.0
68 14 0.0
68 15 0.0
66 15 0.0
68 14 0.0
70 14 0.0
70 15 0.0
68 15 0.0
70 14 0.0
72 14 0.0
72 15 0.0
70 15 0.0
72 14 0.0
74 14 0.0
74 15 0.0
72 15 0.0
74 14 0.0
76 14 0.0
76 15 0.0
74 15 0.0
76 14 0.0
78 14 0.0
78 15 0.0
76 15 0.0
78 14 0.0
80 14 0.0
80 15 0.0
78 15 0.0
80 14 0.0
82 14 0.0
82 15 0.0
80 15 0.0
82 14 0.0
84 14 0.0
84 15 0.0
82 15 0.0
84 14 0.0
86 14 0.0
86 15 0.0
84 15 0.0
86 14 0.0
88 14 0.0
88 15 0.0
86 15 0.0
88 14 0.0
90 14 0.0
90 15 0.0
88 15 0.0
90 14 0.0
92 14 0.0
92 15 0.0
90 15 0.0
92 14 0.0
94 14 0.0
94 15 0.0
92 15 0.0
94 14 0.0
96 14 0.0
96 15 0.0
94 15 0.0
96 14 0.0
98 14 0.0
98 15 0.0
96 15 0.0
98 14 0.0
100 14 0.0
100 15 0.0
98 15 0.0
0 15 0.0
2 15 0.0
2 16 0.0
0 16 0.0
2 15 0.0
4 15 0.0
4 16 0.0
2 16 0.0
4 15 0.0
6 15 0.0
6 16 0.0
4 16 0.0
6 15 0.0
8 15 0.0
8 16 0.0
6 16 0.0
8 15 0.0
10 15 0.0
10 16 0.0
8 16 0.0
10 15 0.0
12 15 0.0
12 16 0.0
10 16 0.0
12 15 0.0
14 15 0.0
14 16 0.0
12 16 0.0
14 15 0.0
16 15 0.0
16 16 0.0
14 16 0.0
16 15 0.0
18 15 0.0
18 16 0.0
16 16 0.0
18 15 0.0
20 15 0.0
20 16 0.0
18 16 0.0
20 15 0.0
22 15 0.0
22 16 0.0
20 16 0.0
22 15 0.0
24 15 0.0
24 16 0.0
22 16 0.0
24 15 0.0
26 15 0.0
26 16 0.0
24 16 0.0
26 15 0.0
28 15 0.0
28 16 0.0
26 16 0.0
28 15 0.0
30 15 0.0
30 16 0.0
28 16 0.0
30 15 0.0
32 15 0.0
32 16 0.0
30 16 0.0
32 15 0.0
34 15 0.0
34 16 0.0
32 16 0.0
34 15 0.0
36 15 0.0
36 16 0.0
34 16 0.0
36 15 0.0
38 15 0.0
38 16 0.0
36 16 0.0
38 15 0.0
40 15 0.0
40 16 0.0
38 16 0.0
40 15 0.0
42 15 0.0
42 16 0.0
40 16 0.0
42 15 0.0
44 15 0.0
44 16 0.0
42 16 0.0
44 15 0.0
46 15 0.0
46 16 0.0
44 16 0.0
46 15 0.0
48 15 0.0
48 16 0.0
46 16 0.0
48 15 0.0
50 15 0.0
50 16 0.0
48 16 0.0
50 15 0.0
52 15 0.0
52 16 0.0
50 16 0.0
52 15 0.0
54 15 0.0
54 16 0.0
52 16 0.0
54 15 0.0
56 15 0.0
56 16 0.0
54 16 0.0
56 15 0.0
58 15 0.0
58 16 0.0
56 16 0.0
58 15 0.0
60 15 0.0
60 16 0.0
58 16 0.0
60 15 0.0
62 15 0.0
62 16 0.0
60 16 0.0
62 15 0.0
64 15 0.0
64 16 0.0
62 16 0.0
64 15 0.0
66 15 0.0
66 16 0.0
64 16 0.0
66 15 0.0
68 15 0.0
68 16 0.0
66 16 0.0
68 15 0.0
70 15 0.0
70 16 0.0
68 16 0.0
70 15 0.0
72 15 0.0
72 16 0.0
70 16 0.0
72 15 0.0
74 15 0.0
74 16 0.0
72 16 0.0
74 15 0.0
76 15 0.0
76 16 0.0
74 16 0.0
76 15 0.0
78 15 0.0
78 16 0.0
76 16 0.0
78 15 0.0
80 15 0.0
80 16 0.0
78 16 0.0
80 15 0.0
82 15 0.0
82 16 0.0
80 16 0.0
82 15 0.0
84 15 0.0
84 16 0.0
82 16 0.0
84 15 0.0
86 15 0.0
86 16 0.0
84 16 0.0
86 15 0.0
88 15 0.0
88 16 0.0
86 16 0.0
88 15 0.0
90 15 0.0
90 16 0.0
88 16 0.0
90 15 0.0
92 15 0.0
92 16 0.0
90 16 0.0
92 15 0.0
94 15 0.0
94 16 0.0
92 16 0.0
94 15 0.0
96 15 0.0
96 16 0.0
94 16 0.0
96 15 0.0
98 15 0.0
98 16 0.0
96 16 0.0
98 15 0.0
100 15 0.0
100 16 0.0
98 16 0.0
0 16 0.0
2 16 0.0
2 17 0.0
0 17 0.0
2 16 0.0
4 16 0.0
4 17 0.0
2 17 0.0
4 16 0.0
6 16 0.0
6 17 0.0
4 17 0.0
6 16 0.0
8 16 0.0
8 17 0.0
6 17 0.0
8 16 0.0
10 16 0.0
10 17 0.0
8 17 0.0
10 16 0.0
12 16 0.0
12 17 0.0
10 17 0.0
12 16 0.0
14 16 0.0
14 17 0.0
12 17 0.0
14 16 0.0
16 16 0.0
16 17 0.0
14 17 0.0
16 16 0.0
18 16 0.0
18 17 0.0
16 17 0.0
18 16 0.0
20 16 0.0
20 17 0.0
18 17 0.0
20 16 0.0
22 16 0.0
22 17 0.0
20 17 0.0
22 16 0.0
24 16 0.0
24 17 0.0
22 17 0.0
24 16 0.0
26 16 0.0
26 17 0.0
24 17 0.0
26 16 0.0
28 16 0.0
28 17 0.0
26 17 0.0
28 16 0.0
30 16 0.0
30 17 0.0
28 17 0.0
30 16 0.0
32 16 0.0
32 17 0.0
30 17 0.0
32 16 0.0
34 16 0.0
34 17 0.0
32 17 0.0
34 16 0.0
36 16 0.0
36 17 0.0
34 17 0.0
36 16 0.0
38 16 0.0
38 17 0.0
36 17 0.0
38 16 0.0
40 16 0.0
40 17 0.0
38 17 0.0
40 16 0.0
42 16 0.0
42 17 0.0
40 17 0.0
42 16 0.0
44 16 0.0
44 17 0.0
42 17 0.0
44 16 0.0
46 16 0.0
46 17 0.0
44 17 0.0
46 16 0.0
48 16 0.0
48 17 0.0
46 17 0.0
48 16 0.0
50 16 0.0
50 17 0.0
48 17 0.0
50 16 0.0
52 16 0.0
52 17 0.0
50 17 0.0
52 16 0.0
54 16 0.0
54 17 0.0
52 17 0.0
54 16 0.0
56 16 0.0
56 17 0.0
54 17 0.0
56 16 0.0
58 16 0.0
58 17 0.0
56 17 0.0
58 16 0.0
60 16 0.0
60 17 0.0
58 17 0.0
60 16 0.0
62 16 0.0
62 17 0.0
60 17 0.0
62 16 0.0
64 16 0.0
64 17 0.0
62 17 0.0
64 16 0.0
66 16 0.0
66 17 0.0
64 17 0.0
66 16 0.0
68 16 0.0
68 17 0.0
66 17 0.0
68 16 0.0
70 16 0.0
70 17 0.0
68 17 0.0
70 16 0.0
72 16 0.0
72 17 0.0
70 17 0.0
72 16 0.0
74 16 0.0
74 17 0.0
72 17 0.0
74 16 0.0
76 16 0.0
76 17 0.0
74 17 0.0
76 16 0.0
78 16 0.0
78 17 0.0
76 17 0.0
78 16 0.0
80 16 0.0
80 17 0.0
78 17 0.0
80 16 0.0
82 16 0.0
82 17 0.0
80 17 0.0
82 16 0.0
84 16 0.0
84 17 0.0
82 17 0.0
84 16 0.0
86 16 0.0
86 17 0.0
84 17 0.0
86 16 0.0
88 16 0.0
88 17 0.0
86 17 0.0
88 16 0.0
90 16 0.0
90 17 0.0
88 17 0.0
90 16 0.0
92 16 0.0
92 17 0.0
90 17 0.0
92 16 0.0
94 16 0.0
94 17 0.0
92 17 0.0
94 16 0.0
96 16 0.0
96 17 0.0
94 17 0.0
96 16 0.0
98 16 0.0
98 17 0.0
96 17 0.0
98 16 0.0
100 16 0.0
100 17 0.0
98 17 0.0
0 17 0.0
2 17 0.0
2 18 0.0
0 18 0.0
2 17 0.0
4 17 0.0
4 18 0.0
2 18 0.0
4 17 0.0
6 17 0.0
6 18 0.0
4 18 0.0
6 17 0.0
8 17 0.0
8 18 0.0
6 18 0.0
8 17 0.0
10 17 0.0
10 18 0.0
8 18 0.0
10 17 0.0
12 17 0.0
12 18 0.0
10 18 0.0
12 17 0.0
14 17 0.0
14 18 0.0
12 18 0.0
14 17 0.0
16 17 0.0
16 18 0.0
14 18 0.0
16 17 0.0
18 17 0.0
18 18 0.0
16 18 0.0
18 17 0.0
20 17 0.0
20 18 0.0
18 18 0.0
20 17 0.0
22 17 0.0
22 18 0.0
20 18 0.0
22 17 0.0
24 17 0.0
24 18 0.0
22 18 0.0
24 17 0.0
26 17 0.0
26 18 0.0
24 18 0.0
26 17 0.0
28 17 0.0
28 18 0.0
26 18 0.0
28 17 0.0
30 17 0.0
30 18 0.0
28 18 0.0
30 17 0.0
32 17 0.0
32 18 0.0
30 18 0.0
32 17 0.0
34 17 0.0
34 18 0.0
32 18 0.0
34 17 0.0
36 17 0.0
36 18 0.0
34 18 0.0
36 17 0.0
38 17 0.0
38 18 0.0
36 18 0.0
38 17 0.0
40 17 0.0
40 18 0.0
38 18 0.0
40 17 0.0
42 17 0.0
42 18 0.0
40 18 0.0
42 17 0.0
44 17 0.0
44 18 0.0
42 18 0.0
44 17 0.0
46 17 0.0
46 18 0.0
44 18 0.0
46 17 0.0
48 17 0.0
48 18 0.0
46 18 0.0
48 17 0.0
50 17 0.0
50 18 0.0
48 18 0.0
50 17 0.0
52 17 0.0
52 18 0.0
50 18 0.0
52 17 0.0
54 17 0.0
54 18 0.0
52 18 0.0
54 17 0.0
56 17 0.0
56 18 0.0
54 18 0.0
56 17 0.0
58 17 0.0
58 18 0.0
56 18 0.0
58 17 0.0
60 17 0.0
60 18 0.0
58 18 0.0
60 17 0.0
62 17 0.0
62 18 0.0
60 18 0.0
62 17 0.0
64 17 0.0
64 18 0.0
62 18 0.0
64 17 0.0
66 17 0.0
66 18 0.0
64 18 0.0
66 17 0.0
68 17 0.0
68 18 0.0
66 18 0.0
68 17 0.0
70 17 0.0
70 18 0.0
68 18 0.0
70 17 0.0
72 17 0.0
72 18 0.0
70 18 0.0
72 17 0.0
74 17 0.0
74 18 0.0
72 18 0.0
74 17 0.0
76 17 0.0
76 18 0.0
74 18 0.0
76 17 0.0
78 17 0.0
78 18 0.0
76 18 0.0
78 17 0.0
80 17 0.0
80 18 0.0
78 18 0.0
80 17 0.0
82 17 0.0
82 18 0.0
80 18 0.0
82 17 0.0
84 17 0.0
84 18 0.0
82 18 0.0
84 17 0.0
86 17 0.0
86 18 0.0
84 18 0.0
86 17 0.0
88 17 0.0
88 18 0.0
86 18 0.0
88 17 0.0
90 17 0.0
90 18 0.0
88 18 0.0
90 17 0.0
92 17 0.0
92 18 0.0
90 18 0.0
92 17 0.0
94 17 0.0
94 18 0.0
92 18 0.0
94 17 0.0
96 17 0.0
96 18 0.0
94 18 0.0
96 17 0.0
98 17 0.0
98 18 0.0
96 18 0.0
98 17 0.0
100 17 0.0
100 18 0.0
98 18 0.0
0 18 0.0
2 18 0.0
2 19 0.0
0 19 0.0
2 18 0.0
4 18 0.0
4 19 0.0
2 19 0.0
4 18 0.0
6 18 0.0
6 19 0.0
4 19 0.0
6 18 0.0
8 18 0.0
8 19 0.0
6 19 0.0
8 18 0.0
10 18 0.0
10 19 0.0
8 19 0.0
10 18 0.0
12 18 0.0
12 19 0.0
10 19 0.0
12 18 0.0
14 18 0.0
14 19 0.0
12 19 0.0
14 18 0.0
16 18 0.0
16 19 0.0
14 19 0.0
16 18 0.0
18 18 0.0
18 19 0.0
16 19 0.0
18 18 0.0
20 18 0.0
20 19 0.0
18 19 0.0
20 18 0.0
22 18 0.0
22 19 0.0
20 19 0.0
22 18 0.0
24 18 0.0
24 19 0.0
22 19 0.0
24 18 0.0
26 18 0.0
26 19 0.0
24 19 0.0
26 18 0.0
28 18 0.0
28 19 0.0
26 19 0.0
28 18 0.0
30 18 0.0
30 19 0.0
28 19 0.0
30 18 0.0
32 18 0.0
32 19 0.0
30 19 0.0
32 18 0.0
34 18 0.0
34 19 0.0
32 19 0.0
34 18 0.0
36 18 0.0
36 19 0.0
34 19 0.0
36 18 0.0
38 18 0.0
38 19 0.0
36 19 0.0
38 18 0.0
40 18 0.0
40 19 0.0
38 19 0.0
40 18 0.0
42 18 0.0
42 19 0.0
40 19 0.0
42 18 0.0
44 18 0.0
44 19 0.0
42 19 0.0
44 18 0.0
46 18 0.0
46 19 0.0
44 19 0.0
46 18 0.0
48 18 0.0
48 19 0.0
46 19 0.0
48 18 0.0
50 18 0.0
50 19 0.0
48 19 0.0
50 18 0.0
52 18 0.0
52 19 0.0
50 19 0.0
52 18 0.0
54 18 0.0
54 19 0.0
52 19 0.0
54 18 0.0
56 18 0.0
56 19 0.0
54 19 0.0
56 18 0.0
58 18 0.0
58 19 0.0
56 19 0.0
58 18 0.0
60 18 0.0
60 19 0.0
58 19 0.0
60 18 0.0
62 18 0.0
62 19 0.0
60 19 0.0
62 18 0.0
64 18 0.0
64 19 0.0
62 19 0.0
64 18 0.0
66 18 0.0
66 19 0.0
64 19 0.0
66 18 0.0
68 18 0.0
68 19 0.0
66 19 0.0
68 18 0.0
70 18 0.0
70 19 0.0
68 19 0.0
70 18 0.0
72 18 0.0
72 19 0.0
70 19 0.0
72 18 0.0
74 18 0.0
74 19 0.0
72 19 0.0
74 18 0.0
76 18 0.0
76 19 0.0
74 19 0.0
76 18 0.0
78 18 0.0
78 19 0.0
76 19 0.0
78 18 0.0
80 18 0.0
80 19 0.0
78 19 0.0
80 18 0.0
82 18 0.0
82 19 0.0
80 19 0.0
82 18 0.0
84 18 0.0
84 19 0.0
82 19 0.0
84 18 0.0
86 18 0.0
86 19 0.0
84 19 0.0
86 18 0.0
88 18 0.0
88 19 0.0
86 19 0.0
88 18 0.0
90 18 0.0
90 19 0.0
88 19 0.0
90 18 0.0
92 18 0.0
92 19 0.0
90 19 0.0
92 18 0.0
94 18 0.0
94 19 0.0
92 19 0.0
94 18 0.0
96 18 0.0
96 19 0.0
94 19 0.0
96 18 0.0
98 18 0.0
98 19 0.0
96 19 0.0
98 18 0.0
100 18 0.0
100 19 0.0
98 19 0.0
0 19 0.0
2 19 0.0
2 20 0.0
0 20 0.0
2 19 0.0
4 19 0.0
4 20 0.0
2 20 0.0
4 19 0.0
6 19 0.0
6 20 0.0
4 20 0.0
6 19 0.0
8 19 0.0
8 20 0.0
6 20 0.0
8 19 0.0
10 19 0.0
10 20 0.0
8 20 0.0
10 19 0.0
12 19 0.0
12 20 0.0
10 20 0.0
12 19 0.0
14 19 0.0
14 20 0.0
12 20 0.0
14 19 0.0
16 19 0.0
16 20 0.0
14 20 0.0
16 19 0.0
18 19 0.0
18 20 0.0
16 20 0.0
18 19 0.0
20 19 0.0
20 20 0.0
18 20 0.0
20 19 0.0
22 19 0.0
22 20 0.0
20 20 0.0
22 19 0.0
24 19 0.0
24 20 0.0
22 20 0.0
24 19 0.0
26 19 0.0
26 20 0.0
24 20 0.0
26 19 0.0
28 19 0.0
28 20 0.0
26 20 0.0
28 19 0.0
30 19 0.0
30 20 0.0
28 20 0.0
30 19 0.0
32 19 0.0
32 20 0.0
30 20 0.0
32 19 0.0
34 19 0.0
34 20 0.0
32 20 0.0
34 19 0.0
36 19 0.0
36 20 0.0
34 20 0.0
36 19 0.0
38 19 0.0
38 20 0.0
36 20 0.0
38 19 0.0
40 19 0.0
40 20 0.0
38 20 0.0
40 19 0.0
42 19 0.0
42 20 0.0
40 20 0.0
42 19 0.0
44 19 0.0
44 20 0.0
42 20 0.0
44 19 0.0
46 19 0.0
46 20 0.0
44 20 0.0
46 19 0.0
48 19 0.0
48 20 0.0
46 20 0.0
48 19 0.0
50 19 0.0
50 20 0.0
48 20 0.0
50 19 0.0
52 19 0.0
52 20 0.0
50 20 0.0
52 19 0.0
54 19 0.0
54 20 0.0
52 20 0.0
54 19 0.0
56 19 0.0
56 20 0.0
54 20 0.0
56 19 0.0
58 19 0.0
58 20 0.0
56 20 0.0
58 19 0.0
60 19 0.0
60 20 0.0
58 20 0.0
60 19 0.0
62 19 0.0
62 20 0.0
60 20 0.0
62 19 0.0
64 19 0.0
64 20 0.0
62 20 0.0
64 19 0.0
66 19 0.0
66 20 0.0
64 20 0.0
66 19 0.0
68 19 0.0
68 20 0.0
66 20 0.0
68 19 0.0
70 19 0.0
70 20 0.0
68 20 0.0
70 19 0.0
72 19 0.0
72 20 0.0
70 20 0.0
72 19 0.0
74 19 0.0
74 20 0.0
72 20 0.0
74 19 0.0
76 19 0.0
76 20 0.0
74 20 0.0
76 19 0.0
78 19 0.0
78 20 0.0
76 20 0.0
78 19 0.0
80 19 0.0
80 20 0.0
78 20 0.0
80 19 0.0
82 19 0.0
82 20 0.0
80 20 0.0
82 19 0.0
84 19 0.0
84 20 0.0
82 20 0.0
84 19 0.0
86 19 0.0
86 20 0.0
84 20 0.0
86 19 0.0
88 19 0.0
88 20 0.0
86 20 0.0
88 19 0.0
90 19 0.0
90 20 0.0
88 20 0.0
90 19 0.0
92 19 0.0
92 20 0.0
90 20 0.0
92 19 0.0
94 19 0.0
94 20 0.0
92 20 0.0
94 19 0.0
96 19 0.0
96 20 0.0
94 20 0.0
96 19 0.0
98 19 0.0
98 20 0.0
96 20 0.0
98 19 0.0
100 19 0.0
100 20 0.0
98 20 0.0

CELLS 1000 5000
4 0 1 2 3
4 4 5 6 7
4 8 9 10 11
4 12 13 14 15
4 16 17 18 19
4 20 21 22 23
4 24 25 26 27
4 28 29 30 31
4 32 33 34 35
4 36 37 38 39
4 40 41 42 43
4 44 45 46 47
4 48 49 50 51
4 52 53 54 55
4 56 57 58 59
4 60 61 62 63
4 64 65 66 67
4 68 69 70 71
4 72 73 74 75
4 76 77 78 79
4 80 81 82 83
4 84 85 86 87
4 88 89 90 91
4 92 93 94 95
4 96 97 98 99
4 100 101 102 103
4 104 105 106 107
4 108 109 110 111
4 112 113 114 115
4 116 117 118 119
4 120 121 122 123
4 124 125 126 127
4 128 129 130 131
4 132 133 134 135
4 136 137 138 139
4 140 141 142 143
4 144 145 146 147
4 148 149 150 151
4 152 153 154 155
4 156 157 158 159
4 160 161 162 163
4 164 165 166 167
4 168 169 170 171
4 172 173 174 175
4 176 177 178 179
4 180 181 182 183
4 184 185 186 187
4 188 189 190 191
4 192 193 194 195
4 196 197 198 199
4 200 201 202 203
4 204 205 206 207
4 208 209 210 211
4 212 213 214 215
4 216 217 218 219
4 220 221 222 223
4 224 225 226 227
4 228 229 230 231
4 232 233 234 235
4 236 237 238 239
4 240 241 242 243
4 244 245 246 247
4 248 249 250 251
4 252 253 254 255
4 256 257 258 259
4 260 261 262 263
4 264 265 266 267
4 268 269 270 271
4 272 273 274 275
4 276 277 278 279
4 280 281 282 283
4 284 285 286 287
4 288 289 290 291
4 292 293 294 295
4 296 297 298 299
4 300 301 302 303
4 304 305 306 307
4 308 309 310 311
4 312 313 314 315
4 316 317 318 319
4 320 321 322 323
4 324 325 326 327
4 328 329 330 331
4 332 333 334 335
4 336 337 338 339
4 340 341 342 343
4 344 345 346 347
4 348 349 350 351
4 352 353 354 355
4 356 357 358 359
4 360 361 362 363
4 364 365 366 367
4 368 369 370 371
4 372 373 374 375
4 376 377 378 379
4 380 381 382 383
4 384 385 386 387
4 388 389 390 391
4 392 393 394 395
4 396 397 398 399
4 400 401 402 403
4 404 405 406 407
4 408 409 410 411
4 412 413 414 415
4 416 417 418 419
4 420 421 422 423
4 424 425 426 427
4 428 429 430 431
4 432 433 434 435
4 436 437 438 439
4 440 441 442 443
4 444 445 446 447
4 448 449 450 451
4 452 453 454 455
4 456 457 458 459
4 460 461 462 463
4 464 465 466 467
4 468 469 470 471
4 472 473 474 475
4 476 477 478 479
4 480 481 482 483
4 484 485 486 487
4 488 489 490 491
4 492 493 494 495
4 496 497 498 499
4 500 501 502 503
4 504 505 506 507
4 508 509 510 511
4 512 513 514 515
4 516 517 518 519
4 520 521 522 523
4 524 525 526 527
4 528 529 530 531
4 532 533 534 535
4 536 537 538 539
4 540 541 542 543
4 544 545 546 547
4 548 549 550 551
4 552 553 554 555
4 556 557 558 559
4 560 561 562 563
4 564 565 566 567
4 568 569 570 571
4 572 573 574 575
4 576 577 578 579
4 580 581 582 583
4 584 585 586 587
4 588 589 590 591
4 592 593 594 595
4 596 597 598 599
4 600 601 602 603
4 604 605 606 607
4 608 609 610 611
4 612 613 614 615
4 616 617 618 619
4 620 621 622 623
4 624 625 626 627
4 628 629 630 631
4 632 633 634 635
4 636 637 638 639
4 640 641 642 643
4 644 645 646 647
4 648 649 650 651
4 652 653 654 655
4 656 657 658 659
4 660 661 662 663
4 664 665 666 667
4 668 669 670 671
4 672 673 674 675
4 676 677 678 679
4 680 681 682 683
4 684 685 686 687
4 688 689 690 691
4 692 693 694 695
4 696 697 698 699
4 700 701 702 703
4 704 705 706 707
4 708 709 710 711
4 712 713 714 715
4 716 717 718 719
4 720 721 722 723
4 724 725 726 727
4 728 729 730 731
4 732 733 734 735
4 736 737 738 739
4 740 741 742 743
4 744 745 746 747
4 748 749 750 751
4 752 753 754 755
4 756 757 758 759
4 760 761 762 763
4 764 765 766 767
4 768 769 770 771
4 772 773 774 775
4 776 777 778 779
4 780 781 782 783
4 784 785 786 787
4 788 789 790 791
4 792 793 794 795
4 796 797 798 799
4 800 801 802 803
4 804 805 806 807
4 808 809 810 811
4 812 813 814 815
4 816 817 818 819
4 820 821 822 823
4 824 825 826 827
4 828 829 830 831
4 832 833 834 835
4 836 837 838 839
4 840 841 842 843
4 844 845 846 847
4 848 849 850 851
4 852 853 854 855
4 856 857 858 859
4 860 861 862 863
4 864 865 866 867
4 868 869 870 871
4 872 873 874 875
4 876 877 878 879
4 880 881 882 883
4 884 885 886 887
4 888 889 890 891
4 892 893 894 895
4 896 897 898 899
4 900 901 902 903
4 904 905 906 907
4 908 909 910 911
4 912 913 914 915
4 916 917 918 919
4 920 921 922 923
4 924 925 926 927
4 928 929 930 931
4 932 933 934 935
4 936 937 938 939
4 940 941 942 943
4 944 945 946 947
4 948 949 950 951
4 952 953 954 955
4 956 957 958 959
4 960 961 962 963
4 964 965 966 967
4 968 969 970 971
4 972 973 974 975
4 976 977 978 979
4 980 981 982 983
4 984 985 986 987
4 988 989 990 991
4 992 993 994 995
4 996 997 998 999
4 1000 1001 1002 1003
4 1004 1005 1006 1007
4 1008 1009 1010 1011
4 1012 1013 1014 1015
4 1016 1017 1018 1019
4 1020 1021 1022 1023
4 1024 1025 1026 1027
4 1028 1029 1030 1031
4 1032 1033 1034 1035
4 1036 1037 1038 1039
4 1040 1041 1042 1043
4 1044 1045 1046 1047
4 1048 1049 1050 1051
4 1052 1053 1054 1055
4 1056 1057 1058 1059
4 1060 1061 1062 1063
4 1064 1065 1066 1067
4 1068 1069 1070 1071
4 1072 1073 1074 1075
4 1076 1077 1078 1079
4 1080 1081 1082 1083
4 1084 1085 1086 1087
4 1088 1089 1090 1091
4 1092 1093 1094 1095
4 1096 1097 1098 1099
4 1100 1101 1102 1103
4 1104 1105 1106 1107
4 1108 1109 1110 1111
4 1112 1113 1114 1115
4 1116 1117 1118 1119
4 1120 1121 1122 1123
4 1124 1125 1126 1127
4 1128 1129 1130 1131
4 1132 1133 1134 1135
4 1136 1137 1138 1139
4 1140 1141 1142 1143
4 1144 1145 1146 1147
4 1148 1149 1150 1151
4 1152 1153 1154 1155
4 1156 1157 1158 1159
4 1160 1161 1162 1163
4 1164 1165 1166 1167
4 1168 1169 1170 1171
4 1172 1173 1174 1175
4 1176 1177 1178 1179
4 1180 1181 1182 1183
4 1184 1185 1186 1187
4 1188 1189 1190 1191
4 1192 1193 1194 1195
4 1196 1197 1198 1199
4 1200 1201 1202 1203
4 1204 1205 1206 1207
4 1208 1209 1210 1211
4 1212 1213 1214 1215
4 1216 1217 1218 1219
4 1220 1221 1222 1223
4 1224 1225 1226 1227
4 1228 1229 1230 1231
4 1232 1233 1234 1235
4 1236 1237 1238 1239
4 1240 1241 1242 1243
4 1244 1245 1246 1247
4 1248 1249 1250 1251
4 1252 1253 1254 1255
4 1256 1257 1258 1259
4 1260 1261 1262 1263
4 1264 1265 1266 1267
4 1268 1269 1270 1271
4 1272 1273 1274 1275
4 1276 1277 1278 1279
4 1280 1281 1282 1283
4 1284 1285 1286 1287
4 1288 1289 1290 1291
4 1292 1293 1294 1295
4 1296 1297 1298 1299
4 1300 1301 1302 1303
4 1304 1305 1306 1307
4 1308 1309 1310 1311
4 1312 1313 1314 1315
4 1316 1317 1318 1319
4 1320 1321 1322 1323
4 1324 1325 1326 1327
4 1328 1329 1330 1331
4 1332 1333 1334 1335
4 1336 1337 1338 1339
4 1340 1341 1342 1343
4 1344 1345 1346 1347
4 1348 1349 1350 1351
4 1352 1353 1354 1355
4 1356 1357 1358 1359
4 1360 1361 1362 1363
4 1364 1365 1366 1367
4 1368 1369 1370 1371
4 1372 1373 1374 1375
4 1376 1377 1378 1379
4 1380 1381 1382 1383
4 1384 1385 1386 1387
4 1388 1389 1390 1391
4 1392 1393 1394 1395
4 1396 1397 1398 1399
4 1400 1401 1402 1403
4 1404 1405 1406 1407
4 1408 1409 1410 1411
4 1412 1413 1414 1415
4 1416 1417 1418 1419
4 1420 1421 1422 1423
4 1424 1425 1426 1427
4 1428 1429 1430 1431
4 1432 1433 1434 1435
4 1436 1437 1438 1439
4 1440 1441 1442 1443
4 1444 1445 1446 1447
4 1448 1449 1450 1451
4 1452 1453 1454 1455
4 1456 1457 1458 1459
4 1460 1461 1462 1463
4 1464 1465 1466 1467
4 1468 1469 1470 1471
4 1472 1473 1474 1475
4 1476 1477 1478 1479
4 1480 1481 1482 1483
4 1484 1485 1486 1487
4 1488 1489 1490 1491
4 1492 1493 1494 1495
4 1496 1497 1498 1499
4 1500 1501 1502 1503
4 1504 1505 1506 1507
4 1508 1509 1510 1511
4 1512 1513 1514 1515
4 1516 1517 1518 1519
4 1520 1521 1522 1523
4 1524 1525 1526 1527
4 1528 1529 1530 1531
4 1532 1533 1534 1535
4 1536 1537 1538 1539
4 1540 1541 1542 1543
4 1544 1545 1546 1547
4 1548 1549 1550 1551
4 1552 1553 1554 1555
4 1556 1557 1558 1559
4 1560 1561 1562 1563
4 1564 1565 1566 1567
4 1568 1569 1570 1571
4 1572 1573 1574 1575
4 1576 1577 1578 1579
4 1580 1581 1582 1583
4 1584 1585 1586 1587
4 1588 1589 1590 1591
4 1592 1593 1594 1595
4 1596 1597 1598 1599
4 1600 1601 1602 1603
4 1604 1605 1606 1607
4 1608 1609 1610 1611
4 1612 1613 1614 1615
4 1616 1617 1618 1619
4 1620 1621 1622 1623
4 1624 1625 1626 1627
4 1628 1629 1630 1631
4 1632 1633 1634 1635
4 1636 1637 1638 1639
4 1640 1641 1642 1643
4 1644 1645 1646 1647
4 1648 1649 1650 1651
4 1652 1653 1654 1655
4 1656 1657 1658 1659
4 1660 1661 1662 1663
4 1664 1665 1666 1667
4 1668 1669 1670 1671
4 1672 1673 1674 1675
4 1676 1677 1678 1679
4 1680 1681 1682 1683
4 1684 1685 1686 1687
4 1688 1689 1690 1691
4 1692 1693 1694 1695
4 1696 1697 1698 1699
4 1700 1701 1702 1703
4 1704 1705 1706 1707
4 1708 1709 1710 1711
4 1712 1713 1714 1715
4 1716 1717 1718 1719
4 1720 1721 1722 1723
4 1724 1725 1726 1727
4 1728 1729 1730 1731
4 1732 1733 1734 1735
4 1736 1737 1738 1739
4 1740 1741 1742 1743
4 1744 1745 1746 1747
4 1748 1749 1750 1751
4 1752 1753 1754 1755
4 1756 1757 1758 1759
4 1760 1761 1762 1763
4 1764 1765 1766 1767
4 1768 1769 1770 1771
4 1772 1773 1774 1775
4 1776 1777 1778 1779
4 1780 1781 1782 1783
4 1784 1785 1786 1787
4 1788 1789 1790 1791
4 1792 1793 1794 1795
4 1796 1797 1798 1799
4 1800 1801 1802 1803
4 1804 1805 1806 1807
4 1808 1809 1810 1811
4 1812 1813 1814 1815
4 1816 1817 1818 1819
4 1820 1821 1822 1823
4 1824 1825 1826 1827
4 1828 1829 1830 1831
4 1832 1833 1834 1835
4 1836 1837 1838 1839
4 1840 1841 1842 1843
4 1844 1845 1846 1847
4 1848 1849 1850 1851
4 1852 1853 1854 1855
4 1856 1857 1858 1859
4 1860 1861 1862 1863
4 1864 1865 1866 1867
4 1868 1869 1870 1871
4 1872 1873 1874 1875
4 1876 1877 1878 1879
4 1880 1881 1882 1883
4 1884 1885 1886 1887
4 1888 1889 1890 1891
4 1892 1893 1894 1895
4 1896 1897 1898 1899
4 1900 1901 1902 1903
4 1904 1905 1906 1907
4 1908 1909 1910 1911
4 1912 1913 1914 1915
4 1916 1917 1918 1919
4 1920 1921 1922 1923
4 1924 1925 1926 1927
4 1928 1929 1930 1931
4 1932 1933 1934 1935
4 1936 1937 1938 1939
4 1940 1941 1942 1943
4 1944 1945 1946 1947
4 1948 1949 1950 1951
4 1952 1953 1954 1955
4 1956 1957 1958 1959
4 1960 1961 1962 1963
4 1964 1965 1966 1967
4 1968 1969 1970 1971
4 1972 1973 1974 1975
4 1976 1977 1978 1979
4 1980 1981 1982 1983
4 1984 1985 1986 1987
4 1988 1989 1990 1991
4 1992 1993 1994 1995
4 1996 1997 1998 1999
4 2000 2001 2002 2003
4 2004 2005 2006 2007
4 2008 2009 2010 2011
4 2012 2013 2014 2015
4 2016 2017 2018 2019
4 2020 2021 2022 2023
4 2024 2025 2026 2027
4 2028 2029 2030 2031
4 2032 2033 2034 2035
4 2036 2037 2038 2039
4 2040 2041 2042 2043
4 2044 2045 2046 2047
4 2048 2049 2050 2051
4 2052 2053 2054 2055
4 2056 2057 2058 2059
4 2060 2061 2062 2063
4 2064 2065 2066 2067
4 2068 2069 2070 2071
4 2072 2073 2074 2075
4 2076 2077 2078 2079
4 2080 2081 2082 2083
4 2084 2085 2086 2087
4 2088 2089 2090 2091
4 2092 2093 2094 2095
4 2096 2097 2098 2099
4 2100 2101 2102 2103
4 2104 2105 2106 2107
4 2108 2109 2110 2111
4 2112 2113 2114 2115
4 2116 2117 2118 2119
4 2120 2121 2122 2123
4 2124 2125 2126 2127
4 2128 2129 2130 2131
4 2132 2133 2134 2135
4 2136 2137 2138 2139
4 2140 2141 2142 2143
4 2144 2145 2146 2147
4 2148 2149 2150 2151
4 2152 2153 2154 2155
4 2156 2157 2158 2159
4 2160 2161 2162 2163
4 2164 2165 2166 2167
4 2168 2169 2170 2171
4 2172 2173 2174 2175
4 2176 2177 2178 2179
4 2180 2181 2182 2183
4 2184 2185 2186 2187
4 2188 2189 2190 2191
4 2192 2193 2194 2195
4 2196 2197 2198 2199
4 2200 2201 2202 2203
4 2204 2205 2206 2207
4 2208 2209 2210 2211
4 2212 2213 2214 2215
4 2216 2217 2218 2219
4 2220 2221 2222 2223
4 2224 2225 2226 2227
4 2228 2229 2230 2231
4 2232 2233 2234 2235
4 2236 2237 2238 2239
4 2240 2241 2242 2243
4 2244 2245 2246 2247
4 2248 2249 2250 2251
4 2252 2253 2254 2255
4 2256 2257 2258 2259
4 2260 2261 2262 2263
4 2264 2265 2266 2267
4 2268 2269 2270 2271
4 2272 2273 2274 2275
4 2276 2277 2278 2279
4 2280 2281 2282 2283
4 2284 2285 2286 2287
4 2288 2289 2290 2291
4 2292 2293 2294 2295
4 2296 2297 2298 2299
4 2300 2301 2302 2303
4 2304 2305 2306 2307
4 2308 2309 2310 2311
4 2312 2313 2314 2315
4 2316 2317 2318 2319
4 2320 2321 2322 2323
4 2324 2325 2326 2327
4 2328 2329 2330 2331
4 2332 2333 2334 2335
4 2336 2337 2338 2339
4 2340 2341 2342 2343
4 2344 2345 2346 2347
4 2348 2349 2350 2351
4 2352 2353 2354 2355
4 2356 2357 2358 2359
4 2360 2361 2362 2363
4 2364 2365 2366 2367
4 2368 2369 2370 2371
4 2372 2373 2374 2375
4 2376 2377 2378 2379
4 2380 2381 2382 2383
4 2384 2385 2386 2387
4 2388 2389 2390 2391
4 2392 2393 2394 2395
4 2396 2397 2398 2399
4 2400 2401 2402 2403
4 2404 2405 2406 2407
4 2408 2409 2410 2411
4 2412 2413 2414 2415
4 2416 2417 2418 2419
4 2420 2421 2422 2423
4 2424 2425 2426 2427
4 2428 2429 2430 2431
4 2432 2433 2434 2435
4 2436 2437 2438 2439
4 2440 2441 2442 2443
4 2444 2445 2446 2447
4 2448 2449 2450 2451
4 2452 2453 2454 2455
4 2456 2457 2458 2459
4 2460 2461 2462 2463
4 2464 2465 2466 2467
4 2468 2469 2470 2471
4 2472 2473 2474 2475
4 2476 2477 2478 2479
4 2480 2481 2482 2483
4 2484 2485 2486 2487
4 2488 2489 2490 2491
4 2492 2493 2494 2495
4 2496 2497 2498 2499
4 2500 2501 2502 2503
4 2504 2505 2506 2507
4 2508 2509 2510 2511
4 2512 2513 2514 2515
4 2516 2517 2518 2519
4 2520 2521 2522 2523
4 2524 2525 2526 2527
4 2528 2529 2530 2531
4 2532 2533 2534 2535
4 2536 2537 2538 2539
4 2540 2541 2542 2543
4 2544 2545 2546 2547
4 2548 2549 2550 2551
4 2552 2553 2554 2555
4 2556 2557 2558 2559
4 2560 2561 2562 2563
4 2564 2565 2566 2567
4 2568 2569 2570 2571
4 2572 2573 2574 2575
4 2576 2577 2578 2579
4 2580 2581 2582 2583
4 2584 2585 2586 2587
4 2588 2589 2590 2591
4 2592 2593 2594 2595
4 2596 2597 2598 2599
4 2600 2601 2602 2603
4 2604 2605 2606 2607
4 2608 2609 2610 2611
4 2612 2613 2614 2615
4 2616 2617 2618 2619
4 2620 2621 2622 2623
4 2624 2625 2626 2627
4 2628 2629 2630 2631
4 2632 2633 2634 2635
4 2636 2637 2638 2639
4 2640 2641 2642 2643
4 2644 2645 2646 2647
4 2648 2649 2650 2651
4 2652 2653 2654 2655
4 2656 2657 2658 2659
4 2660 2661 2662 2663
4 2664 2665 2666 2667
4 2668 2669 2670 2671
4 2672 2673 2674 2675
4 2676 2677 2678 2679
4 2680 2681 2682 2683
4 2684 2685 2686 2687
4 2688 2689 2690 2691
4 2692 2693 2694 2695
4 2696 2697 2698 2699
4 2700 2701 2702 2703
4 2704 2705 2706 2707
4 2708 2709 2710 2711
4 2712 2713 2714 2715
4 2716 2717 2718 2719
4 2720 2721 2722 2723
4 2724 2725 2726 2727
4 2728 2729 2730 2731
4 2732 2733 2734 2735
4 2736 2737 2738 2739
4 2740 2741 2742 2743
4 2744 2745 2746 2747
4 2748 2749 2750 2751
4 2752 2753 2754 2755
4 2756 2757 2758 2759
4 2760 2761 2762 2763
4 2764 2765 2766 2767
4 2768 2769 2770 2771
4 2772 2773 2774 2775
4 2776 2777 2778 2779
4 2780 2781 2782 2783
4 2784 2785 2786 2787
4 2788 2789 2790 2791
4 2792 2793 2794 2795
4 2796 2797 2798 2799
4 2800 2801 2802 2803
4 2804 2805 2806 2807
4 2808 2809 2810 2811
4 2812 2813 2814 2815
4 2816 2817 2818 2819
4 2820 2821 2822 2823
4 2824 2825 2826 2827
4 2828 2829 2830 2831
4 2832 2833 2834 2835
4 2836 2837 2838 2839
4 2840 2841 2842 2843
4 2844 2845 2846 2847
4 2848 2849 2850 2851
4 2852 2853 2854 2855
4 2856 2857 2858 2859
4 2860 2861 2862 2863
4 2864 2865 2866 2867
4 2868 2869 2870 2871
4 2872 2873 2874 2875
4 2876 2877 2878 2879
4 2880 2881 2882 2883
4 2884 2885 2886 2887
4 2888 2889 2890 2891
4 2892 2893 2894 2895
4 2896 2897 2898 2899
4 2900 2901 2902 2903
4 2904 2905 2906 2907
4 2908 2909 2910 2911
4 2912 2913 2914 2915
4 2916 2917 2918 2919
4 2920 2921 2922 2923
4 2924 2925 2926 2927
4 2928 2929 2930 2931
4 2932 2933 2934 2935
4 2936 2937 2938 2939
4 2940 2941 2942 2943
4 2944 2945 2946 2947
4 2948 2949 2950 2951
4 2952 2953 2954 2955
4 2956 2957 2958 2959
4 2960 2961 2962 2963
4 2964 2965 2966 2967
4 2968 2969 2970 2971
4 2972 2973 2974 2975
4 2976 2977 2978 2979
4 2980 2981 2982 2983
4 2984 2985 2986 2987
4 2988 2989 2990 2991
4 2992 2993 2994 2995
4 2996 2997 2998 2999
4 3000 3001 3002 3003
4 3004 3005 3006 3007
4 3008 3009 3010 3011
4 3012 3013 3014 3015
4 3016 3017 3018 3019
4 3020 3021 3022 3023
4 3024 3025 3026 3027
4 3028 3029 3030 3031
4 3032 3033 3034 3035
4 3036 3037 3038 3039
4 3040 3041 3042 3043
4 3044 3045 3046 3047
4 3048 3049 3050 3051
4 3052 3053 3054 3055
4 3056 3057 3058 3059
4 3060 3061 3062 3063
4 3064 3065 3066 3067
4 3068 3069 3070 3071
4 3072 3073 3074 3075
4 3076 3077 3078 3079
4 3080 3081 3082 3083
4 3084 3085 3086 3087
4 3088 3089 3090 3091
4 3092 3093 3094 3095
4 3096 3097 3098 3099
4 3100 3101 3102 3103
4 3104 3105 3106 3107
4 3108 3109 3110 3111
4 3112 3113 3114 3115
4 3116 3117 3118 3119
4 3120 3121 3122 3123
4 3124 3125 3126 3127
4 3128 3129 3130 3131
4 3132 3133 3134 3135
4 3136 3137 3138 3139
4 3140 3141 3142 3143
4 3144 3145 3146 3147
4 3148 3149 3150 3151
4 3152 3153 3154 3155
4 3156 3157 3158 3159
4 3160 3161 3162 3163
4 3164 3165 3166 3167
4 3168 3169 3170 3171
4 3172 3173 3174 3175
4 3176 3177 3178 3179
4 3180 3181 3182 3183
4 3184 3185 3186 3187
4 3188 3189 3190 3191
4 3192 3193 3194 3195
4 3196 3197 3198 3199
4 3200 3201 3202 3203
4 3204 3205 3206 3207
4 3208 3209 3210 3211
4 3212 3213 3214 3215
4 3216 3217 3218 3219
4 3220 3221 3222 3223
4 3224 3225 3226 3227
4 3228 3229 3230 3231
4 3232 3233 3234 3235
4 3236 3237 3238 3239
4 3240 3241 3242 3243
4 3244 3245 3246 3247
4 3248 3249 3250 3251
4 3252 3253 3254 3255
4 3256 3257 3258 3259
4 3260 3261 3262 3263
4 3264 3265 3266 3267
4 3268 3269 3270 3271
4 3272 3273 3274 3275
4 3276 3277 3278 3279
4 3280 3281 3282 3283
4 3284 3285 3286 3287
4 3288 3289 3290 3291
4 3292 3293 3294 3295
4 3296 3297 3298 3299
4 3300 3301 3302 3303
4 3304 3305 3306 3307
4 3308 3309 3310 3311
4 3312 3313 3314 3315
4 3316 3317 3318 3319
4 3320 3321 3322 3323
4 3324 3325 3326 3327
4 3328 3329 3330 3331
4 3332 3333 3334 3335
4 3336 3337 3338 3339
4 3340 3341 3342 3343
4 3344 3345 3346 3347
4 3348 3349 3350 3351
4 3352 3353 3354 3355
4 3356 3357 3358 3359
4 3360 3361 3362 3363
4 3364 3365 3366 3367
4 3368 3369 3370 3371
4 3372 3373 3374 3375
4 3376 3377 3378 3379
4 3380 3381 3382 3383
4 3384 3385 3386 3387
4 3388 3389 3390 3391
4 3392 3393 3394 3395
4 3396 3397 3398 3399
4 3400 3401 3402 3403
4 3404 3405 3406 3407
4 3408 3409 3410 3411
4 3412 3413 3414 3415
4 3416 3417 3418 3419
4 3420 3421 3422 3423
4 3424 3425 3426 3427
4 3428 3429 3430 3431
4 3432 3433 3434 3435
4 3436 3437 3438 3439
4 3440 3441 3442 3443
4 3444 3445 3446 3447
4 3448 3449 3450 3451
4 3452 3453 3454 3455
4 3456 3457 3458 3459
4 3460 3461 3462 3463
4 3464 3465 3466 3467
4 3468 3469 3470 3471
4 3472 3473 3474 3475
4 3476 3477 3478 3479
4 3480 3481 3482 3483
4 3484 3485 3486 3487
4 3488 3489 3490 3491
4 3492 3493 3494 3495
4 3496 3497 3498 3499
4 3500 3501 3502 3503
4 3504 3505 3506 3507
4 3508 3509 3510 3511
4 3512 3513 3514 3515
4 3516 3517 3518 3519
4 3520 3521 3522 3523
4 3524 3525 3526 3527
4 3528 3529 3530 3531
4 3532 3533 3534 3535
4 3536 3537 3538 3539
4 3540 3541 3542 3543
4 3544 3545 3546 3547
4 3548 3549 3550 3551
4 3552 3553 3554 3555
4 3556 3557 3558 3559
4 3560 3561 3562 3563
4 3564 3565 3566 3567
4 3568 3569 3570 3571
4 3572 3573 3574 3575
4 3576 3577 3578 3579
4 3580 3581 3582 3583
4 3584 3585 3586 3587
4 3588 3589 3590 3591
4 3592 3593 3594 3595
4 3596 3597 3598 3599
4 3600 3601 3602 3603
4 3604 3605 3606 3607
4 3608 3609 3610 3611
4 3612 3613 3614 3615
4 3616 3617 3618 3619
4 3620 3621 3622 3623
4 3624 3625 3626 3627
4 3628 3629 3630 3631
4 3632 3633 3634 3635
4 3636 3637 3638 3639
4 3640 3641 3642 3643
4 3644 3645 3646 3647
4 3648 3649 3650 3651
4 3652 3653 3654 3655
4 3656 3657 3658 3659
4 3660 3661 3662 3663
4 3664 3665 3666 3667
4 3668 3669 3670 3671
4 3672 3673 3674 3675
4 3676 3677 3678 3679
4 3680 3681 3682 3683
4 3684 3685 3686 3687
4 3688 3689 3690 3691
4 3692 3693 3694 3695
4 3696 3697 3698 3699
4 3700 3701 3702 3703
4 3704 3705 3706 3707
4 3708 3709 3710 3711
4 3712 3713 3714 3715
4 3716 3717 3718 3719
4 3720 3721 3722 3723
4 3724 3725 3726 3727
4 3728 3729 3730 3731
4 3732 3733 3734 3735
4 3736 3737 3738 3739
4 3740 3741 3742 3743
4 3744 3745 3746 3747
4 3748 3749 3750 3751
4 3752 3753 3754 3755
4 3756 3757 3758 3759
4 3760 3761 3762 3763
4 3764 3765 3766 3767
4 3768 3769 3770 3771
4 3772 3773 3774 3775
4 3776 3777 3778 3779
4 3780 3781 3782 3783
4 3784 3785 3786 3787
4 3788 3789 3790 3791
4 3792 3793 3794 3795
4 3796 3797 3798 3799
4 3800 3801 3802 3803
4 3804 3805 3806 3807
4 3808 3809 3810 3811
4 3812 3813 3814 3815
4 3816 3817 3818 3819
4 3820 3821 3822 3823
4 3824 3825 3826 3827
4 3828 3829 3830 3831
4 3832 3833 3834 3835
4 3836 3837 3838 3839
4 3840 3841 3842 3843
4 3844 3845 3846 3847
4 3848 3849 3850 3851
4 3852 3853 3854 3855
4 3856 3857 3858 3859
4 3860 3861 3862 3863
4 3864 3865 3866 3867
4 3868 3869 3870 3871
4 3872 3873 3874 3875
4 3876 3877 3878 3879
4 3880 3881 3882 3883
4 3884 3885 3886 3887
4 3888 3889 3890 3891
4 3892 3893 3894 3895
4 3896 3897 3898 3899
4 3900 3901 3902 3903
4 3904 3905 3906 3907
4 3908 3909 3910 3911
4 3912 3913 3914 3915
4 3916 3917 3918 3919
4 3920 3921 3922 3923
4 3924 3925 3926 3927
4 3928 3929 3930 3931
4 3932 3933 3934 3935
4 3936 3937 3938 3939
4 3940 3941 3942 3943
4 3944 3945 3946 3947
4 3948 3949 3950 3951
4 3952 3953 3954 3955
4 3956 3957 3958 3959
4 3960 3961 3962 3963
4 3964 3965 3966 3967
4 3968 3969 3970 3971
4 3972 3973 3974 3975
4 3976 3977 3978 3979
4 3980 3981 3982 3983
4 3984 3985 3986 3987
4 3988 3989 3990 3991
4 3992 3993 3994 3995
4 3996 3997 3998 3999

CELL_TYPES 1000
9
9
9
9
9
9
9
9
9
9
9
9
9
9
9
9
9
9
9
9
9
9
9
9
9
9
9
9
9
9
9
9
9
9
9
9
9
9
9
9
9
9
9
9
9
9
9
9
9
9
9
9
9
9
9
9
9
9
9
9
9
9
9
9
9
9
9
9
9
9
9
9
9
9
9
9
9
9
9
9
9
9
9
9
9
9
9
9
9
9
9
9
9
9
9
9
9
9
9
9
9
9
9
9
9
9
9
9
9
9
9
9
9
9
9
9
9
9
9
9
9
9
9
9
9
9
9
9
9
9
9
9
9
9
9
9
9
9
9
9
9
9
9
9
9
9
9
9
9
9
9
9
9
9
9
9
9
9
9
9
9
9
9
9
9
9
9
9
9
9
9
9
9
9
9
9
9
9
9
9
9
9
9
9
9
9
9
9
9
9
9
9
9
9
9
9
9
9
9
9
9
9
9
9
9
9
9
9
9
9
9
9
9
9
9
9
9
9
9
9
9
9
9
9
9
9
9
9
9
9
9
9
9
9
9
9
9
9
9
9
9
9
9
9
9
9
9
9
9
9
9
9
9
9
9
9
9
9
9
9
9
9
9
9
9
9
9
9
9
9
9
9
9
9
9
9
9
9
9
9
9
9
9
9
9
9
9
9
9
9
9
9
9
9
9
9
9
9
9
9
9
9
9
9
9
9
9
9
9
9
9
9
9
9
9
9
9
9
9
9
9
9
9
9
9
9
9
9
9
9
9
9
9
9
9
9
9
9
9
9
9
9
9
9
9
9
9
9
9
9
9
9
9
9
9
9
9
9
9
9
9
9
9
9
9
9
9
9
9
9
9
9
9
9
9
9
9
9
9
9
9
9
9
9
9
9
9
9
9
9
9
9
9
9
9
9
9
9
9
9
9
9
9
9
9
9
9
9
9
9
9
9
9
9
9
9
9
9
9
9
9
9
9
9
9
9
9
9
9
9
9
9
9
9
9
9
9
9
9
9
9
9
9
9
9
9
9
9
9
9
9
9
9
9
9
9
9
9
9
9
9
9
9
9
9
9
9
9
9
9
9
9
9
9
9
9
9
9
9
9
9
9
9
9
9
9
9
9
9
9
9
9
9
9
9
9
9
9
9
9
9
9
9
9
9
9
9
9
9
9
9
9
9
9
9
9
9
9
9
9
9
9
9
9
9
9
9
9
9
9
9
9
9
9
9
9
9
9
9
9
9
9
9
9
9
9
9
9
9
9
9
9
9
9
9
9
9
9
9
9
9
9
9
9
9
9
9
9
9
9
9
9
9
9
9
9
9
9
9
9
9
9
9
9
9
9
9
9
9
9
9
9
9
9
9
9
9
9
9
9
9
9
9
9
9
9
9
9
9
9
9
9
9
9
9
9
9
9
9
9
9
9
9
9
9
9
9
9
9
9
9
9
9
9
9
9
9
9
9
9
9
9
9
9
9
9
9
9
9
9
9
9
9
9
9
9
9
9
9
9
9
9
9
9
9
9
9
9
9
9
9
9
9
9
9
9
9
9
9
9
9
9
9
9
9
9
9
9
9
9
9
9
9
9
9
9
9
9
9
9
9
9
9
9
9
9
9
9
9
9
9
9
9
9
9
9
9
9
9
9
9
9
9
9
9
9
9
9
9
9
9
9
9
9
9
9
9
9
9
9
9
9
9
9
9
9
9
9
9
9
9
9
9
9
9
9
9
9
9
9
9
9
9
9
9
9
9
9
9
9
9
9
9
9
9
9
9
9
9
9
9
9
9
9
9
9
9
9
9
9
9
9
9
9
9
9
9
9
9
9
9
9
9
9
9
9
9
9
9
9
9
9
9
9
9
9
9
9
9
9
9
9
9
9
9
9
9
9
9
9
9
9
9
9
9
9
9
9
9
9
9
9
9
9
9
9
9
9
9
9
9
9
9
9
9
9
9
9
9
9
9
9
9
9
9
9
9
9
9
9
9
9
9
9
9
9
9
9
9
9
9
9
9
9
9
9
9
9
9
9
9
9
9
9
9
9
9
9
9
9
9
9
9
9
9
9
9
9
9
9
9
9
9
9
9
9
9
9
9
9
9
9
9
9
9
9
9
9
9
9
9
9
9
9
9
9
9
9
9
9
9
9
9
9
9
9
9
9
9
9
9
9
9
9
9
9
9
9
9
9
9
9
9
9
9
9
9
9
9
9
9
9
9
9
9
9
9
9
9
9
9
9
9
9
9
9
9
9
9
9
9
9
9
9
9
9
9
9
9
9


POINT_DATA 4000
VECTORS displacements double
0 0 0.0
-0.14671800959312 -0.103548280625709 0.0
-0.111834636385334 -0.0725582756510965 0.0
0 0 0.0
-0.14671800959312 -0.103548280625709 0.0
-0.270198626757185 -0.169503507643494 0.0
-0.233850903875872 -0.144640821660031 0.0
-0.111834636385334 -0.0725582756510965 0.0
-0.270198626757185 -0.169503507643494 0.0
-0.393705932206903 -0.25212112546026 0.0
-0.347878412287049 -0.226563641603307 0.0
-0.233850903875872 -0.144640821660031 0.0
-0.393705932206903 -0.25212112546026 0.0
-0.517150858148128 -0.355354603868815 0.0
-0.460117377464919 -0.330272599685333 0.0
-0.347878412287049 -0.226563641603307 0.0
-0.517150858148128 -0.355354603868815 0.0
-0.639300074347053 -0.48220747110031 0.0
-0.570493182549152 -0.457469492908143 0.0
-0.460117377464919 -0.330272599685333 0.0
-0.639300074347053 -0.48220747110031 0.0
-0.759560035121565 -0.633004186377786 0.0
-0.678874692529139 -0.608734567214421 0.0
-0.570493182549152 -0.457469492908143 0.0
-0.759560035121565 -0.633004186377786 0.0
-0.877511975184077 -0.807616720237978 0.0
-0.785072569865547 -0.783851279959817 0.0
-0.678874692529139 -0.608734567214421 0.0
-0.877511975184077 -0.807616720237978 0.0
-0.992940746858697 -1.00561348502203 0.0
-0.888962240853648 -0.982379997666032 0.0
-0.785072569865547 -0.783851279959817 0.0
-0.992940746858697 -1.00561348502203 0.0
-1.1057347588163 -1.226478780395 0.0
-0.990471302658851 -1.20378942427708 0.0
-0.888962240853648 -0.982379997666032 0.0
-1.1057347588163 -1.226478780395 0.0
-1.21584252149378 -1.46966521853799 0.0
-1.08956233184275 -1.44752593640643 0.0
-0.990471302658851 -1.20378942427708 0.0
-1.21584252149378 -1.46966521853799 0.0
-1.32324189725693 -1.73462023473274 0.0
-1.18621761884204 -1.71303341897825 0.0
-1.08956233184275 -1.44752593640643 0.0
-1.32324189725693 -1.73462023473274 0.0
-1.4279245138593 -2.02079264154975 0.0
-1.28042954496843 -1.99975917647363 0.0
-1.18621761884204 -1.71303341897825 0.0
-1.4279245138593 -2.02079264154975 0.0
-1.52988776106556 -2.32763394640474 0.0
-1.37219520150175 -2.30715407911495 0.0
-1.28042954496843 -1.99975917647363 0.0
-1.52988776106556 -2.32763394640474 0.0
-1.62913117490902 -2.65459774846552 0.0
-1.46151367423644 -2.63467150560475 0.0
-1.37219520150175 -2.30715407911495 0.0
-1.62913117490902 -2.65459774846552 0.0
-1.72565492597583 -3.00113895288623 0.0
-1.54838479276526 -2.98176630188004 0.0
-1.46151367423644 -2.63467150560475 0.0
-1.72565492597583 -3.00113895288623 0.0
-1.8194592745756 -3.36671317448577 0.0
-1.63280860935776 -3.34789408000575 0.0
-1.54838479276526 -2.98176630188004 0.0
-1.8194592745756 -3.36671317448577 0.0
-1.91054441735074 -3.75077637656547 0.0
-1.71478520948853 -3.73251081410458 0.0
-1.63280860935776 -3.34789408000575 0.0
-1.91054441735074 -3.75077637656547 0.0
-1.99891047245065 -4.15278467650098 0.0
-1.79431465819363 -4.13507263206362 0.0
-1.71478520948853 -3.73251081410458 0.0
-1.99891047245065 -4.15278467650098 0.0
-2.08455750125904 -4.57219425059775 0.0
-1.87139699478897 -4.55503571715984 0.0
-1.79431465819363 -4.13507263206362 0.0
-2.08455750125904 -4.57219425059775 0.0
-2.16748553233299 -5.0084612909717 0.0
-1.94603224100283 -4.99185626513726 0.0
-1.87139699478897 -4.55503571715984 0.0
-2.16748553233299 -5.0084612909717 0.0
-2.24769457964022 -5.46104198721646 0.0
-2.01822041084584 -5.44499046661763 0.0
-1.94603224100283 -4.99185626513726 0.0
-2.24769457964022 -5.46104198721646 0.0
-2.32518465611526 -5.92939251899423 0.0
-2.08796151980895 -5.91389450009656 0.0
-2.01822041084584 -5.44499046661763 0.0
-2.32518465611526 -5.92939251899423 0.0
-2.39995578573054 -6.41296905363385 0.0
-2.15525559418289 -6.39802452941439 0.0
-2.08796151980895 -5.91389450009656 0.0
-2.39995578573054 -6.41296905363385 0.0
-2.47200801733641 -6.91122774736974 0.0
-2.22010268212832 -6.8968367043564 0.0
-2.15525559418289 -6.39802452941439 0.0
-2.47200801733641 -6.91122774736974 0.0
-2.54134144311195 -7.42362475177523 0.0
-2.28250286810467 -7.40978716600976 0.0
-2.22010268212832 -6.8968367043564 0.0
-2.54134144311195 -7.42362475177523 0.0
-2.60795622394257 -7.94961622940288 0.0
-2.34245629182855 -7.93633206101676 0.0
-2.28250286810467 -7.40978716600976 0.0
-2.60795622394257 -7.94961622940288 0.0
-2.67185262317175 -8.4886583853553 0.0
-2.39996317198276 -8.47592757170088 0.0
-2.34245629182855 -7.93633206101676 0.0
-2.67185262317175 -8.4886583853553 0.0
-2.73303104838284 -9.04020752484143 0.0
-2.45502383301294 -9.02802997264051 0.0
-2.39996317198276 -8.47592757170088 0.0
-2.73303104838284 -9.04020752484143 0.0
-2.79149209723362 -9.60372015077288 0.0
-2.50763872981705 -9.59209572873825 0.0
-2.45502383301294 -9.02802997264051 0.0
-2.79149209723362 -9.60372015077288 0.0
-2.84723659653463 -10.1786531197169 0.0
-2.55780845891693 -10.1675816548727 0.0
-2.50763872981705 -9.59209572873825 0.0
-2.84723659653463 -10.1786531197169 0.0
-2.90026561180582 -10.7644638778942 0.0
-2.60553373439127 -10.7539451617766 0.0
-2.55780845891693 -10.1675816548727 0.0
-2.90026561180582 -10.7644638778942 0.0
-2.9505803848809 -11.3606107989257 0.0
-2.65081529067801 -11.3506446145071 0.0
-2.60553373439127 -10.7539451617766 0.0
-2.9505803848809 -11.3606107989257 0.0
-2.9981821265765 -11.9665536370654 0.0
-2.69365365037949 -11.9571398241971 0.0
-2.65081529067801 -11.3506446145071 0.0
-2.9981821265765 -11.9665536370654 0.0
-3.04307154669974 -12.5817540856425 0.0
-2.73404866186838 -12.5728926725224 0.0
-2.69365365037949 -11.9571398241971 0.0
-3.04307154669974 -12.5817540856425 0.0
-3.08524794263001 -13.2056763771581 0.0
-2.77199866891034 -13.1973678178001 0.0
-2.73404866186838 -12.5728926725224 0.0
-3.08524794263001 -13.2056763771581 0.0
-3.12470759251233 -13.8377877587138 0.0
-2.8074991270875 -13.8300333303236 0.0
-2.77199866891034 -13.1973678178001 0.0
-3.12470759251233 -13.8377877587138 0.0
-3.16144112227122 -14.477558495701 0.0
-2.84054044302729 -14.4703609211549 0.0
-2.8074991270875 -13.8300333303236 0.0
-3.16144112227122 -14.477558495701 0.0
-3.19542947142631 -15.1244607631749 0.0
-2.87110481303762 -15.1178251229674 0.0
-2.84054044302729 -14.4703609211549 0.0
-3.19542947142631 -15.1244607631749 0.0
-3.2266381453987 -15.7779653475282 0.0
-2.89916193767745 -15.7719003138077 0.0
-2.87110481303762 -15.1178251229674 0.0
-3.2266381453987 -15.7779653475282 0.0
-3.25500975089831 -16.4375345042282 0.0
-2.92466379132153 -16.4320538342709 0.0
-2.89916193767745 -15.7719003138077 0.0
-3.25500975089831 -16.4375345042282 0.0
-3.28045559188538 -17.1026087021452 0.0
-2.94753928497761 -17.0977327211698 0.0
-2.92466379132153 -16.4320538342709 0.0
-3.28045559188538 -17.1026087021452 0.0
-3.30284865772238 -17.7725846467018 0.0
-2.96769085948668 -17.7683410740775 0.0
-2.94753928497761 -17.0977327211698 0.0
-3.30284865772238 -17.7725846467018 0.0
-3.32202293618492 -18.4467826072097 0.0
-2.98499690196263 -18.4432055035199 0.0
-2.96769085948668 -17.7683410740775 0.0
-3.32202293618492 -18.4467826072097 0.0
-3.33778759635594 -19.124403905937 0.0
-2.99932621422058 -19.1215288129704 0.0
-2.98499690196263 -18.4432055035199 0.0
-3.33778759635594 -19.124403905937 0.0
-3.34996836229609 -19.8044862447054 0.0
-3.01057270917254 -19.8023390288505 0.0
-2.99932621422058 -19.1215288129704 0.0
-3.34996836229609 -19.8044862447054 0.0
-3.35848999485214 -20.4858772572702 0.0
-3.01871794178962 -20.4844544889209 0.0
-3.01057270917254 -19.8023390288505 0.0
-3.35848999485214 -20.4858772572702 0.0
-3.36350905011599 -21.1672671625643 0.0
-3.02392227162232 -21.1665077159236 0.0
-3.01871794178962 -20.4844544889209 0.0
-3.36350905011599 -21.1672671625643 0.0
-3.36558857719623 -21.8473498960182 0.0
-3.02662380255315 -21.8471053180256 0.0
-3.02392227162232 -21.1665077159236 0.0
-3.36558857719623 -21.8473498960182 0.0
-3.3658564827449 -22.5252514241783 0.0
-3.0275756880032 -22.5252661411977 0.0
-3.02662380255315 -21.8471053180256 0.0
-3.3658564827449 -22.5252514241783 0.0
-3.36572891913042 -23.2013681882695 0.0
-3.0277573517572 -23.2013359290106 0.0
-3.0275756880032 -22.5252661411977 0.0
0 0 0.0
-0.111834636385334 -0.0725582756510965 0.0
-0.0930743673614782 -0.0513745996702332 0.0
0 0 0.0
-0.111834636385334 -0.0725582756510965 0.0
-0.233850903875872 -0.144640821660031 0.0
-0.198770879976475 -0.120379516546289 0.0
-0.0930743673614782 -0.0513745996702332 0.0
-0.233850903875872 -0.144640821660031 0.0
-0.347878412287049 -0.226563641603307 0.0
-0.303185252592917 -0.203537266739044 0.0
-0.198770879976475 -0.120379516546289 0.0
-0.347878412287049 -0.226563641603307 0.0
-0.460117377464919 -0.330272599685333 0.0
-0.404138353334278 -0.307555146019516 0.0
-0.303185252592917 -0.203537266739044 0.0
-0.460117377464919 -0.330272599685333 0.0
-0.570493182549152 -0.457469492908143 0.0
-0.502888992267622 -0.435238051036101 0.0
-0.404138353334278 -0.307555146019516 0.0
-0.570493182549152 -0.457469492908143 0.0
-0.678874692529139 -0.608734567214421 0.0
-0.599514093766937 -0.586966312617944 0.0
-0.502888992267622 -0.435238051036101 0.0
-0.678874692529139 -0.608734567214421 0.0
-0.785072569865547 -0.783851279959817 0.0
-0.69403611982551 -0.762566122184653 0.0
-0.599514093766937 -0.586966312617944 0.0
-0.785072569865547 -0.783851279959817 0.0
-0.888962240853648 -0.982379997666032 0.0
-0.786430608443113 -0.961583425278513 0.0
-0.69403611982551 -0.762566122184653 0.0
-0.888962240853648 -0.982379997666032 0.0
-0.990471302658851 -1.20378942427708 0.0
-0.876676942053372 -1.18348558890991 0.0
-0.786430608443113 -0.961583425278513 0.0
-0.990471302658851 -1.20378942427708 0.0
-1.08956233184275 -1.44752593640643 0.0
-0.964761564266904 -1.42771643980206 0.0
-0.876676942053372 -1.18348558890991 0.0
-1.08956233184275 -1.44752593640643 0.0
-1.18621761884204 -1.71303341897825 0.0
-1.05067710620868 -1.69371895354082 0.0
-0.964761564266904 -1.42771643980206 0.0
-1.18621761884204 -1.71303341897825 0.0
-1.28042954496843 -1.99975917647363 0.0
-1.13441995049359 -1.98093995782894 0.0
-1.05067710620868 -1.69371895354082 0.0
-1.28042954496843 -1.99975917647363 0.0
-1.37219520150175 -2.30715407911495 0.0
-1.21598849125056 -2.28883015568 0.0
-1.13441995049359 -1.98093995782894 0.0
-1.37219520150175 -2.30715407911495 0.0
-1.46151367423644 -2.63467150560475 0.0
-1.29538208937231 -2.61684286998123 0.0
-1.21598849125056 -2.28883015568 0.0
-1.46151367423644 -2.63467150560475 0.0
-1.54838479276526 -2.98176630188004 0.0
-1.37260052815753 -2.96443293705235 0.0
-1.29538208937231 -2.61684286998123 0.0
-1.54838479276526 -2.98176630188004 0.0
-1.63280860935776 -3.34789408000575 0.0
-1.44764375521205 -3.33105597221916 0.0
-1.37260052815753 -2.96443293705235 0.0
-1.63280860935776 -3.34789408000575 0.0
-1.71478520948853 -3.73251081410458 0.0
-1.52051177163105 -3.71616795493032 0.0
-1.44764375521205 -3.33105597221916 0.0
-1.71478520948853 -3.73251081410458 0.0
-1.79431465819363 -4.13507263206362 0.0
-1.5912045899692 -4.11922501711583 0.0
-1.52051177163105 -3.71616795493032 0.0
-1.79431465819363 -4.13507263206362 0.0
-1.87139699478897 -4.55503571715984 0.0
-1.65972222151467 -4.53968334443031 0.0
-1.5912045899692 -4.11922501711583 0.0
-1.87139699478897 -4.55503571715984 0.0
-1.94603224100283 -4.99185626513726 0.0
-1.72606467484692 -4.97699913361295 0.0
-1.65972222151467 -4.53968334443031 0.0
-1.94603224100283 -4.99185626513726 0.0
-2.01822041084584 -5.44499046661763 0.0
-1.79023195838654 -5.43062857514742 0.0
-1.72606467484692 -4.97699913361295 0.0
-2.01822041084584 -5.44499046661763 0.0
-2.08796151980895 -5.91389450009656 0.0
-1.85222408456923 -5.90002784625627 0.0
-1.79023195838654 -5.43062857514742 0.0
-2.08796151980895 -5.91389450009656 0.0
-2.15525559418289 -6.39802452941439 0.0
-1.91204107534431 -6.38465310809042 0.0
-1.85222408456923 -5.90002784625627 0.0
-2.15525559418289 -6.39802452941439 0.0
-2.22010268212832 -6.8968367043564 0.0
-1.96968296945378 -6.88396050578061 0.0
-1.91204107534431 -6.38465310809042 0.0
-2.22010268212832 -6.8968367043564 0.0
-2.28250286810467 -7.40978716600976 0.0
-2.02514983208265 -7.39740617301062 0.0
-1.96968296945378 -6.88396050578061 0.0
-2.28250286810467 -7.40978716600976 0.0
-2.34245629182855 -7.93633206101676 0.0
-2.07844176719317 -7.92444624532621 0.0
-2.02514983208265 -7.39740617301062 0.0
-2.34245629182855 -7.93633206101676 0.0
-2.39996317198276 -8.47592757170088 0.0
-2.129558932087 -8.46453688933292 0.0
-2.07844176719317 -7.92444624532621 0.0
-2.39996317198276 -8.47592757170088 0.0
-2.45502383301294 -9.02802997264051 0.0
-2.17850155219465 -9.01713435872992 0.0
-2.129558932087 -8.46453688933292 0.0
-2.45502383301294 -9.02802997264051 0.0
-2.50763872981705 -9.59209572873825 0.0
-2.22526993129142 -9.5816950929374 0.0
-2.17850155219465 -9.01713435872992 0.0
-2.50763872981705 -9.59209572873825 0.0
-2.55780845891693 -10.1675816548727 0.0
-2.26986444760101 -10.1576758796547 0.0
-2.22526993129142 -9.5816950929374 0.0
-2.55780845891693 -10.1675816548727 0.0
-2.60553373439127 -10.7539451617766 0.0
-2.31228551867684 -10.7445341080571 0.0
-2.26986444760101 -10.1576758796547 0.0
-2.60553373439127 -10.7539451617766 0.0
-2.65081529067801 -11.3506446145071 0.0
-2.35253350649905 -11.341728142223 0.0
-2.31228551867684 -10.7445341080571 0.0
-2.65081529067801 -11.3506446145071 0.0
-2.69365365037949 -11.9571398241971 0.0
-2.39060851786822 -11.9487178402525 0.0
-2.35253350649905 -11.341728142223 0.0
-2.69365365037949 -11.9571398241971 0.0
-2.73404866186838 -12.5728926725224 0.0
-2.42651003335524 -12.56496522517 0.0
-2.39060851786822 -11.9487178402525 0.0
-2.73404866186838 -12.5728926725224 0.0
-2.77199866891034 -13.1973678178001 0.0
-2.46023627156947 -13.1899352651501 0.0
-2.42651003335524 -12.56496522517 0.0
-2.77199866891034 -13.1973678178001 0.0
-2.8074991270875 -13.8300333303236 0.0
-2.49178316809953 -13.8230966206532 0.0
-2.46023627156947 -13.1899352651501 0.0
-2.8074991270875 -13.8300333303236 0.0
-2.84054044302729 -14.4703609211549 0.0
-2.52114282969225 -14.4639220319458 0.0
-2.49178316809953 -13.8230966206532 0.0
-2.84054044302729 -14.4703609211549 0.0
-2.87110481303762 -15.1178251229674 0.0
-2.54830133379403 -15.1118877090441 0.0
-2.52114282969225 -14.4639220319458 0.0
-2.87110481303762 -15.1178251229674 0.0
-2.89916193767745 -15.7719003138077 0.0
-2.5732358179159 -15.7664706019676 0.0
-2.54830133379403 -15.1118877090441 0.0
-2.89916193767745 -15.7719003138077 0.0
-2.92466379132153 -16.4320538342709 0.0
-2.59591100377903 -16.4271417521545 0.0
-2.5732358179159 -15.7664706019676 0.0
-2.92466379132153 -16.4320538342709 0.0
-2.94753928497761 -17.0977327211698 0.0
-2.61627572101239 -17.0933531272076 0.0
-2.59591100377903 -16.4271417521545 0.0
-2.94753928497761 -17.0977327211698 0.0
-2.96769085948668 -17.7683410740775 0.0
-2.63426075332435 -17.764514712601 0.0
-2.61627572101239 -17.0933531272076 0.0
-2.96769085948668 -17.7683410740775 0.0
-2.98499690196263 -18.4432055035199 0.0
-2.64978052309566 -18.439958893179 0.0
-2.63426075332435 -17.764514712601 0.0
-2.98499690196263 -18.4432055035199 0.0
-2.99932621422058 -19.1215288129704 0.0
-2.66274268651268 -19.1188916835194 0.0
-2.64978052309566 -18.439958893179 0.0
-2.99932621422058 -19.1215288129704 0.0
-3.01057270917254 -19.8023390288505 0.0
-2.67307106297903 -19.8003373315332 0.0
-2.66274268651268 -19.1188916835194 0.0
-3.01057270917254 -19.8023390288505 0.0
-3.01871794178962 -20.4844544889209 0.0
-2.6807469204483 -20.4830968749255 0.0
-2.67307106297903 -19.8003373315332 0.0
-3.01871794178962 -20.4844544889209 0.0
-3.02392227162232 -21.1665077159236 0.0
-2.6858681232459 -21.1657649020755 0.0
-2.6807469204483 -20.4830968749255 0.0
-3.02392227162232 -21.1665077159236 0.0
-3.02662380255315 -21.8471053180256 0.0
-2.68871096332827 -21.8468852273187 0.0
-2.6858681232459 -21.1657649020755 0.0
-3.02662380255315 -21.8471053180256 0.0
-3.0275756880032 -22.5252661411977 0.0
-2.68977910194464 -22.5253690097335 0.0
-2.68871096332827 -21.8468852273187 0.0
-3.0275756880032 -22.5252661411977 0.0
-3.0277573517572 -23.2013359290106 0.0
-2.68997807016588 -23.2012348686991 0.0
-2.68977910194464 -22.5253690097335 0.0
0 0 0.0
-0.0930743673614782 -0.0513745996702332 0.0
-0.0784016326824305 -0.0363186152109293 0.0
0 0 0.0
-0.0930743673614782 -0.0513745996702332 0.0
-0.198770879976475 -0.120379516546289 0.0
-0.168305565605894 -0.0997790642075938 0.0
-0.0784016326824305 -0.0363186152109293 0.0
-0.198770879976475 -0.120379516546289 0.0
-0.303185252592917 -0.203537266739044 0.0
-0.260030357900087 -0.182750522378404 0.0
-0.168305565605894 -0.0997790642075938 0.0
-0.303185252592917 -0.203537266739044 0.0
-0.404138353334278 -0.307555146019516 0.0
-0.349489934856792 -0.287311170299594 0.0
-0.260030357900087 -0.182750522378404 0.0
-0.404138353334278 -0.307555146019516 0.0
-0.502888992267622 -0.435238051036101 0.0
-0.436508130209667 -0.41546494673703 0.0
-0.349489934856792 -0.287311170299594 0.0
-0.502888992267622 -0.435238051036101 0.0
-0.599514093766937 -0.586966312617944 0.0
-0.521398981959952 -0.567680556167297 0.0
-0.436508130209667 -0.41546494673703 0.0
-0.599514093766937 -0.586966312617944 0.0
-0.69403611982551 -0.762566122184653 0.0
-0.604272658315619 -0.743744443922798 0.0
-0.521398981959952 -0.567680556167297 0.0
-0.69403611982551 -0.762566122184653 0.0
-0.786430608443113 -0.961583425278513 0.0
-0.685193796132393 -0.943215198162421 0.0
-0.604272658315619 -0.743744443922798 0.0
-0.786430608443113 -0.961583425278513 0.0
-0.876676942053372 -1.18348558890991 0.0
-0.764190497333762 -1.16556273372484 0.0
-0.685193796132393 -0.943215198162421 0.0
-0.876676942053372 -1.18348558890991 0.0
-0.964761564266904 -1.42771643980206 0.0
-0.841275736829553 -1.41023466951231 0.0
-0.764190497333762 -1.16556273372484 0.0
-0.964761564266904 -1.42771643980206 0.0
-1.05067710620868 -1.69371895354082 0.0
-0.916454935803416 -1.67667596690676 0.0
-0.841275736829553 -1.41023466951231 0.0
-1.05067710620868 -1.69371895354082 0.0
-1.13441995049359 -1.98093995782894 0.0
-0.98973020057998 -1.96433466764533 0.0
-0.916454935803416 -1.67667596690676 0.0
-1.13441995049359 -1.98093995782894 0.0
-1.21598849125056 -2.28883015568 0.0
-1.06110221886267 -2.27266208335678 0.0
-0.98973020057998 -1.96433466764533 0.0
-1.21598849125056 -2.28883015568 0.0
-1.29538208937231 -2.61684286998123 0.0
-1.13057114085549 -2.60111182981057 0.0
-1.06110221886267 -2.27266208335678 0.0
-1.29538208937231 -2.61684286998123 0.0
-1.37260052815753 -2.96443293705235 0.0
-1.19813694579223 -2.94913886854164 0.0
-1.13057114085549 -2.60111182981057 0.0
-1.37260052815753 -2.96443293705235 0.0
-1.44764375521205 -3.33105597221916 0.0
-1.26379958019388 -3.31619886289173 0.0
-1.19813694579223 -2.94913886854164 0.0
-1.44764375521205 -3.33105597221916 0.0
-1.52051177163105 -3.71616795493032 0.0
-1.32755899979537 -3.70174780732837 0.0
-1.26379958019388 -3.31619886289173 0.0
-1.52051177163105 -3.71616795493032 0.0
-1.5912045899692 -4.11922501711583 0.0
-1.38941517638682 -4.10524183658023 0.0
-1.32755899979537 -3.70174780732837 0.0
-1.5912045899692 -4.11922501711583 0.0
-1.65972222151467 -4.53968334443031 0.0
-1.44936809462076 -4.52613713543051 0.0
-1.38941517638682 -4.10524183658023 0.0
-1.65972222151467 -4.53968334443031 0.0
-1.72606467484692 -4.97699913361295 0.0
-1.50741774788647 -4.96388989915688 0.0
-1.44936809462076 -4.52613713543051 0.0
-1.72606467484692 -4.97699913361295 0.0
-1.79023195838654 -5.43062857514742 0.0
-1.56356413584004 -5.41795631697989 0.0
-1.50741774788647 -4.96388989915688 0.0
-1.79023195838654 -5.43062857514742 0.0
-1.85222408456923 -5.90002784625627 0.0
-1.61780726395915 -5.88779256499511 0.0
-1.56356413584004 -5.41795631697989 0.0
-1.85222408456923 -5.90002784625627 0.0
-1.91204107534431 -6.38465310809042 0.0
-1.67014714495607 -6.37285480299929 0.0
-1.61780726395915 -5.88779256499511 0.0
-1.91204107534431 -6.38465310809042 0.0
-1.96968296945378 -6.88396050578061 0.0
-1.72058380188718 -6.87259917404067 0.0
-1.67014714495607 -6.37285480299929 0.0
-1.96968296945378 -6.88396050578061 0.0
-2.02514983208265 -7.39740617301062 0.0
-1.76911727285699 -7.38648180836406 0.0
-1.72058380188718 -6.87259917404067 0.0
-2.02514983208265 -7.39740617301062 0.0
-2.07844176719317 -7.92444624532621 0.0
-1.81574761711319 -7.91395883593344 0.0
-1.76911727285699 -7.38648180836406 0.0
-2.07844176719317 -7.92444624532621 0.0
-2.129558932087 -8.46453688933292 0.0
-1.86047492191767 -8.4544864146726 0.0
-1.81574761711319 -7.91395883593344 0.0
-2.129558932087 -8.46453688933292 0.0
-2.17850155219465 -9.01713435872992 0.0
-1.90329930868212 -9.00752078542561 0.0
-1.86047492191767 -8.4544864146726 0.0
-2.17850155219465 -9.01713435872992 0.0
-2.22526993129142 -9.5816950929374 0.0
-1.94422093522952 -9.57251836958332 0.0
-1.90329930868212 -9.00752078542561 0.0
-2.22526993129142 -9.5816950929374 0.0
-2.26986444760101 -10.1576758796547 0.0
-1.98323998834724 -10.1489359311375 0.0
-1.94422093522952 -9.57251836958332 0.0
-2.26986444760101 -10.1576758796547 0.0
-2.31228551867684 -10.7445341080571 0.0
-2.02035665660988 -10.7362308306905 0.0
-1.98323998834724 -10.1489359311375 0.0
-2.31228551867684 -10.7445341080571 0.0
-2.35253350649905 -11.341728142223 0.0
-2.05557106729351 -11.3338614024695 0.0
-2.02035665660988 -10.7362308306905 0.0
-2.35253350649905 -11.341728142223 0.0
-2.39060851786822 -11.9487178402525 0.0
-2.08888316264483 -11.941287482276 0.0
-2.05557106729351 -11.3338614024695 0.0
-2.39060851786822 -11.9487178402525 0.0
-2.42651003335524 -12.56496522517 0.0
-2.12029247957946 -12.5579710964986 0.0
-2.08888316264483 -11.941287482276 0.0
-2.42651003335524 -12.56496522517 0.0
-2.46023627156947 -13.1899352651501 0.0
-2.14979778331085 -13.1833772761879 0.0
-2.12029247957946 -12.5579710964986 0.0
-2.46023627156947 -13.1899352651501 0.0
-2.49178316809953 -13.8230966206532 0.0
-2.17739649055067 -13.8169748639403 0.0
-2.14979778331085 -13.1833772761879 0.0
-2.49178316809953 -13.8230966206532 0.0
-2.52114282969225 -14.4639220319458 0.0
-2.20308380423125 -14.458237002684 0.0
-2.17739649055067 -13.8169748639403 0.0
-2.52114282969225 -14.4639220319458 0.0
-2.54830133379403 -15.1118877090441 0.0
-2.22685147388002 -15.1066406913412 0.0
-2.20308380423125 -14.458237002684 0.0
-2.54830133379403 -15.1118877090441 0.0
-2.5732358179159 -15.7664706019676 0.0
-2.24868610293545 -15.7616643154299 0.0
-2.22685147388002 -15.1066406913412 0.0
-2.5732358179159 -15.7664706019676 0.0
-2.59591100377903 -16.4271417521545 0.0
-2.26856696606646 -16.4227813828724 0.0
-2.24868610293545 -15.7616643154299 0.0
-2.59591100377903 -16.4271417521545 0.0
-2.61627572101239 -17.0933531272076 0.0
-2.28646342102953 -17.0894478663961 0.0
-2.26856696606646 -16.4227813828724 0.0
-2.61627572101239 -17.0933531272076 0.0
-2.63426075332435 -17.764514712601 0.0
-2.30233229816934 -17.7610798228428 0.0
-2.28646342102953 -17.0894478663961 0.0
-2.63426075332435 -17.764514712601 0.0
-2.64978052309566 -18.439958893179 0.0
-2.31611630092474 -18.4370179819727 0.0
-2.30233229816934 -17.7610798228428 0.0
-2.64978052309566 -18.439958893179 0.0
-2.66274268651268 -19.1188916835194 0.0
-2.32774566255597 -19.116478116734 0.0
-2.31611630092474 -18.4370179819727 0.0
-2.66274268651268 -19.1188916835194 0.0
-2.67307106297903 -19.8003373315332 0.0
-2.33714709174174 -19.7984924746116 0.0
-2.32774566255597 -19.116478116734 0.0
-2.67307106297903 -19.8003373315332 0.0
-2.6807469204483 -20.4830968749255 0.0
-2.34426564306869 -20.4818613882159 0.0
-2.33714709174174 -19.7984924746116 0.0
-2.6807469204483 -20.4830968749255 0.0
-2.6858681232459 -21.1657649020755 0.0
-2.34910455745934 -21.1651582444653 0.0
-2.34426564306869 -20.4818613882159 0.0
-2.6858681232459 -21.1657649020755 0.0
-2.68871096332827 -21.8468852273187 0.0
-2.35178726881811 -21.846864045139 0.0
-2.34910455745934 -21.1651582444653 0.0
-2.68871096332827 -21.8468852273187 0.0
-2.68977910194464 -22.5253690097335 0.0
-2.35267507619657 -22.5257157172861 0.0
-2.35178726881811 -21.846864045139 0.0
-2.68977910194464 -22.5253690097335 0.0
-2.68997807016588 -23.2012348686991 0.0
-2.35268449385438 -23.2012224108632 0.0
-2.35267507619657 -22.5257157172861 0.0
0 0 0.0
-0.0784016326824305 -0.0363186152109293 0.0
-0.0655763125339138 -0.0252370782298297 0.0
0 0 0.0
-0.0784016326824305 -0.0363186152109293 0.0
-0.168305565605894 -0.0997790642075938 0.0
-0.140794244497534 -0.0830021851725393 0.0
-0.0655763125339138 -0.0252370782298297 0.0
-0.168305565605894 -0.0997790642075938 0.0
-0.260030357900087 -0.182750522378404 0.0
-0.219041867926367 -0.164742727896289 0.0
-0.140794244497534 -0.0830021851725393 0.0
-0.260030357900087 -0.182750522378404 0.0
-0.349489934856792 -0.287311170299594 0.0
-0.29624734060804 -0.269560914436843 0.0
-0.219041867926367 -0.164742727896289 0.0
-0.349489934856792 -0.287311170299594 0.0
-0.436508130209667 -0.41546494673703 0.0
-0.371364403149061 -0.398188851893127 0.0
-0.29624734060804 -0.269560914436843 0.0
-0.436508130209667 -0.41546494673703 0.0
-0.521398981959952 -0.567680556167297 0.0
-0.444446947811683 -0.550875179238253 0.0
-0.371364403149061 -0.398188851893127 0.0
-0.521398981959952 -0.567680556167297 0.0
-0.604272658315619 -0.743744443922798 0.0
-0.515657077626282 -0.727384305138248 0.0
-0.444446947811683 -0.550875179238253 0.0
-0.604272658315619 -0.743744443922798 0.0
-0.685193796132393 -0.943215198162421 0.0
-0.585103629858612 -0.927272219127402 0.0
-0.515657077626282 -0.727384305138248 0.0
-0.685193796132393 -0.943215198162421 0.0
-0.764190497333762 -1.16556273372484 0.0
-0.652853415134683 -1.15001897580122 0.0
-0.585103629858612 -0.927272219127402 0.0
-0.764190497333762 -1.16556273372484 0.0
-0.841275736829553 -1.41023466951231 0.0
-0.718941842011449 -1.39507951274574 0.0
-0.652853415134683 -1.15001897580122 0.0
-0.841275736829553 -1.41023466951231 0.0
-0.916454935803416 -1.67667596690676 0.0
-0.78338643659616 -1.66190390103189 0.0
-0.718941842011449 -1.39507951274574 0.0
-0.916454935803416 -1.67667596690676 0.0
-0.98973020057998 -1.96433466764533 0.0
-0.846195114295412 -1.94994304483917 0.0
-0.78338643659616 -1.66190390103189 0.0
-0.98973020057998 -1.96433466764533 0.0
-1.06110221886267 -2.27266208335678 0.0
-0.90737111946075 -2.25864975281509 0.0
-0.846195114295412 -1.94994304483917 0.0
-1.06110221886267 -2.27266208335678 0.0
-1.13057114085549 -2.60111182981057 0.0
-0.966915603180905 -2.58747834454868 0.0
-0.90737111946075 -2.25864975281509 0.0
-1.13057114085549 -2.60111182981057 0.0
-1.19813694579223 -2.94913886854164 0.0
-1.02482887504793 -2.93588408432681 0.0
-0.966915603180905 -2.58747834454868 0.0
-1.19813694579223 -2.94913886854164 0.0
-1.26379958019388 -3.31619886289173 0.0
-1.08111095444011 -3.30332275023305 0.0
-1.02482887504793 -2.93588408432681 0.0
-1.26379958019388 -3.31619886289173 0.0
-1.32755899979537 -3.70174780732837 0.0
-1.13576178843499 -3.68925037243167 0.0
-1.08111095444011 -3.30332275023305 0.0
-1.32755899979537 -3.70174780732837 0.0
-1.38941517638682 -4.10524183658023 0.0
-1.18878132443584 -4.09312309209165 0.0
-1.13576178843499 -3.68925037243167 0.0
-1.38941517638682 -4.10524183658023 0.0
-1.44936809462076 -4.52613713543051 0.0
-1.24016952670084 -4.51439709192571 0.0
-1.18878132443584 -4.09312309209165 0.0
-1.44936809462076 -4.52613713543051 0.0
-1.50741774788647 -4.96388989915688 0.0
-1.28992637489506 -4.95252856413063 0.0
-1.24016952670084 -4.51439709192571 0.0
-1.50741774788647 -4.96388989915688 0.0
-1.56356413584004 -5.41795631697989 0.0
-1.33805185911153 -5.40697369596201 0.0
-1.28992637489506 -4.95252856413063 0.0
-1.56356413584004 -5.41795631697989 0.0
-1.61780726395915 -5.88779256499511 0.0
-1.38454597582335 -5.87718866288551 0.0
-1.33805185911153 -5.40697369596201 0.0
-1.61780726395915 -5.88779256499511 0.0
-1.67014714495607 -6.37285480299929 0.0
-1.42940872555159 -6.36262962507621 0.0
-1.38454597582335 -5.87718866288551 0.0
-1.67014714495607 -6.37285480299929 0.0
-1.72058380188718 -6.87259917404067 0.0
-1.47264011195316 -6.86275272650673 0.0
-1.42940872555159 -6.36262962507621 0.0
-1.72058380188718 -6.87259917404067 0.0
-1.76911727285699 -7.38648180836406 0.0
-1.51424014187309 -7.37701409830347 0.0
-1.47264011195316 -6.86275272650673 0.0
-1.76911727285699 -7.38648180836406 0.0
-1.81574761711319 -7.91395883593344 0.0
-1.55420882597594 -7.90486987038506 0.0
-1.51424014187309 -7.37701409830347 0.0
-1.81574761711319 -7.91395883593344 0.0
-1.86047492191767 -8.4544864146726 0.0
-1.59254617961715 -8.44577619824873 0.0
-1.55420882597594 -7.90486987038506 0.0
-1.86047492191767 -8.4544864146726 0.0
-1.90329930868212 -9.00752078542561 0.0
-1.62925222355247 -8.99918931553267 0.0
-1.59254617961715 -8.44577619824873 0.0
-1.90329930868212 -9.00752078542561 0.0
-1.94422093522952 -9.57251836958332 0.0
-1.66432698387923 -9.56456562782115 0.0
-1.62925222355247 -8.99918931553267 0.0
-1.94422093522952 -9.57251836958332 0.0
-1.98323998834724 -10.1489359311375 0.0
-1.69777049023664 -10.1413618688805 0.0
-1.66432698387923 -9.56456562782115 0.0
-1.98323998834724 -10.1489359311375 0.0
-2.02035665660988 -10.7362308306905 0.0
-1.72958277073272 -10.7290353462618 0.0
-1.69777049023664 -10.1413618688805 0.0
-2.02035665660988 -10.7362308306905 0.0
-2.05557106729351 -11.3338614024695 0.0
-1.75976384126233 -11.3270443069248 0.0
-1.72958277073272 -10.7290353462618 0.0
-2.05557106729351 -11.3338614024695 0.0
-2.08888316264483 -11.941287482276 0.0
-1.78831368569863 -11.9348484511115 0.0
-1.75976384126233 -11.3270443069248 0.0
-2.08888316264483 -11.941287482276 0.0
-2.12029247957946 -12.5579710964986 0.0
-1.81523222149427 -12.551909606641 0.0
-1.78831368569863 -11.9348484511115 0.0
-2.12029247957946 -12.5579710964986 0.0
-2.14979778331085 -13.1833772761879 0.0
-1.84051924145493 -13.1776925334696 0.0
-1.81523222149427 -12.551909606641 0.0
-2.14979778331085 -13.1833772761879 0.0
-2.17739649055067 -13.8169748639403 0.0
-1.86417431419783 -13.8116657397307 0.0
-1.84051924145493 -13.1776925334696 0.0
-2.17739649055067 -13.8169748639403 0.0
-2.20308380423125 -14.458237002684 0.0
-1.88619660720929 -14.4533020259542 0.0
-1.86417431419783 -13.8116657397307 0.0
-2.20308380423125 -14.458237002684 0.0
-2.22685147388002 -15.1066406913412 0.0
-1.90658455610678 -15.102078193947 0.0
-1.88619660720929 -14.4533020259542 0.0
-2.22685147388002 -15.1066406913412 0.0
-2.24868610293545 -15.7616643154299 0.0
-1.92533522358402 -15.7574729150003 0.0
-1.90658455610678 -15.102078193947 0.0
-2.24868610293545 -15.7616643154299 0.0
-2.26856696606646 -16.4227813828724 0.0
-1.94244305221457 -16.4189611128895 0.0
-1.92533522358402 -15.7574729150003 0.0
-2.26856696606646 -16.4227813828724 0.0
-2.28646342102953 -17.0894478663961 0.0
-1.95789752197674 -17.0860023979186 0.0
-1.94244305221457 -16.4189611128895 0.0
-2.28646342102953 -17.0894478663961 0.0
-2.30233229816934 -17.7610798228428 0.0
-1.97167907237051 -17.7580202569081 0.0
-1.95789752197674 -17.0860023979186 0.0
-2.30233229816934 -17.7610798228428 0.0
-2.31611630092474 -18.4370179819727 0.0
-1.98375284227701 -18.4343683724857 0.0
-1.97167907237051 -17.7580202569081 0.0
-2.31611630092474 -18.4370179819727 0.0
-2.32774566255597 -19.116478116734 0.0
-1.99406092705344 -19.1142817889359 0.0
-1.98375284227701 -18.4343683724857 0.0
-2.32774566255597 -19.116478116734 0.0
-2.33714709174174 -19.7984924746116 0.0
-2.0025167501468 -19.7968158823766 0.0
-1.99406092705344 -19.1142817889359 0.0
-2.33714709174174 -19.7984924746116 0.0
-2.34426564306869 -20.4818613882159 0.0
-2.00901018431864 -20.4807885756923 0.0
-2.0025167501468 -19.7968158823766 0.0
-2.34426564306869 -20.4818613882159 0.0
-2.34910455745934 -21.1651582444653 0.0
-2.01343878553447 -21.164764030481 0.0
-2.00901018431864 -20.4807885756923 0.0
-2.34910455745934 -21.1651582444653 0.0
-2.35178726881811 -21.846864045139 0.0
-2.01579154413895 -21.8471431554801 0.0
-2.01343878553447 -21.164764030481 0.0
-2.35178726881811 -21.846864045139 0.0
-2.35267507619657 -22.5257157172861 0.0
-2.01633620081607 -22.5264173612574 0.0
-2.01579154413895 -21.8471431554801 0.0
-2.35267507619657 -22.5257157172861 0.0
-2.35268449385438 -23.2012224108632 0.0
-2.01599569806749 -23.2015013572817 0.0
-2.01633620081607 -22.5264173612574 0.0
0 0 0.0
-0.0655763125339138 -0.0252370782298297 0.0
-0.0537391877317303 -0.0169608704587445 0.0
0 0 0.0
-0.0655763125339138 -0.0252370782298297 0.0
-0.140794244497534 -0.0830021851725393 0.0
-0.115223852957527 -0.0696557658204638 0.0
-0.0537391877317303 -0.0169608704587445 0.0
-0.140794244497534 -0.0830021851725393 0.0
-0.219041867926367 -0.164742727896289 0.0
-0.179943954280408 -0.149701754367507 0.0
-0.115223852957527 -0.0696557658204638 0.0
-0.219041867926367 -0.164742727896289 0.0
-0.29624734060804 -0.269560914436843 0.0
-0.244456644331058 -0.254444374871075 0.0
-0.179943954280408 -0.149701754367507 0.0
-0.29624734060804 -0.269560914436843 0.0
-0.371364403149061 -0.398188851893127 0.0
-0.307400057918156 -0.383451491396376 0.0
-0.244456644331058 -0.254444374871075 0.0
-0.371364403149061 -0.398188851893127 0.0
-0.444446947811683 -0.550875179238253 0.0
-0.368564072340488 -0.536574095953806 0.0
-0.307400057918156 -0.383451491396376 0.0
-0.444446947811683 -0.550875179238253 0.0
-0.515657077626282 -0.727384305138248 0.0
-0.428059452750517 -0.713493422100846 0.0
-0.368564072340488 -0.536574095953806 0.0
-0.515657077626282 -0.727384305138248 0.0
-0.585103629858612 -0.927272219127402 0.0
-0.486011918663804 -0.913757594446951 0.0
-0.428059452750517 -0.713493422100846 0.0
-0.585103629858612 -0.927272219127402 0.0
-0.652853415134683 -1.15001897580122 0.0
-0.542507790286404 -1.13685510012128 0.0
-0.486011918663804 -0.913757594446951 0.0
-0.652853415134683 -1.15001897580122 0.0
-0.718941842011449 -1.39507951274574 0.0
-0.597597538977405 -1.38225107363089 0.0
-0.542507790286404 -1.13685510012128 0.0
-0.718941842011449 -1.39507951274574 0.0
-0.78338643659616 -1.66190390103189 0.0
-0.651307380819187 -1.64940265279899 0.0
-0.597597538977405 -1.38225107363089 0.0
-0.78338643659616 -1.66190390103189 0.0
-0.846195114295412 -1.94994304483917 0.0
-0.703649766255918 -1.93776497689773 0.0
-0.651307380819187 -1.64940265279899 0.0
-0.846195114295412 -1.94994304483917 0.0
-0.90737111946075 -2.25864975281509 0.0
-0.75463005937654 -2.24679308370189 0.0
-0.703649766255918 -1.93776497689773 0.0
-0.90737111946075 -2.25864975281509 0.0
-0.966915603180905 -2.58747834454868 0.0
-0.804250312294754 -2.57594236689472 0.0
-0.75463005937654 -2.24679308370189 0.0
-0.966915603180905 -2.58747834454868 0.0
-1.02482887504793 -2.93588408432681 0.0
-0.85251117137029 -2.92466855954502 0.0
-0.804250312294754 -2.57594236689472 0.0
-1.02482887504793 -2.93588408432681 0.0
-1.08111095444011 -3.30332275023305 0.0
-0.899412757901081 -3.29242762242226 0.0
-0.85251117137029 -2.92466855954502 0.0
-1.08111095444011 -3.30332275023305 0.0
-1.13576178843499 -3.68925037243167 0.0
-0.944955035150289 -3.67867564524414 0.0
-0.899412757901081 -3.29242762242226 0.0
-1.13576178843499 -3.68925037243167 0.0
-1.18878132443584 -4.09312309209165 0.0
-0.989137942017443 -4.08286878205591 0.0
-0.944955035150289 -3.67867564524414 0.0
-1.18878132443584 -4.09312309209165 0.0
-1.24016952670084 -4.51439709192571 0.0
-1.03196143094617 -4.50446321412662 0.0
-0.989137942017443 -4.08286878205591 0.0
-1.24016952670084 -4.51439709192571 0.0
-1.28992637489506 -4.95252856413063 0.0
-1.0734254717647 -4.94291513003883 0.0
-1.03196143094617 -4.50446321412662 0.0
-1.28992637489506 -4.95252856413063 0.0
-1.33805185911153 -5.40697369596201 0.0
-1.1135300461835 -5.39768071501471 0.0
-1.0734254717647 -4.94291513003883 0.0
-1.33805185911153 -5.40697369596201 0.0
-1.38454597582335 -5.87718866288551 0.0
-1.15227514137374 -5.86821614478229 0.0
-1.1135300461835 -5.39768071501471 0.0
-1.38454597582335 -5.87718866288551 0.0
-1.42940872555159 -6.36262962507621 0.0
-1.18966074461789 -6.35397758189349 0.0
-1.15227514137374 -5.86821614478229 0.0
-1.42940872555159 -6.36262962507621 0.0
-1.47264011195316 -6.86275272650673 0.0
-1.22568683890896 -6.85442117440157 0.0
-1.18966074461789 -6.35397758189349 0.0
-1.47264011195316 -6.86275272650673 0.0
-1.51424014187309 -7.37701409830347 0.0
-1.26035339897118 -7.36900305858626 0.0
-1.22568683890896 -6.85442117440157 0.0
-1.51424014187309 -7.37701409830347 0.0
-1.55420882597594 -7.90486987038506 0.0
-1.29366038741475 -7.89717936941791 0.0
-1.26035339897118 -7.36900305858626 0.0
-1.55420882597594 -7.90486987038506 0.0
-1.59254617961715 -8.44577619824873 0.0
-1.32560775127725 -8.43840626505348 0.0
-1.29366038741475 -7.89717936941791 0.0
-1.59254617961715 -8.44577619824873 0.0
-1.62925222355247 -8.99918931553267 0.0
-1.35619542004281 -8.99213997513777 0.0
-1.32560775127725 -8.43840626505348 0.0
-1.62925222355247 -8.99918931553267 0.0
-1.66432698387923 -9.56456562782115 0.0
-1.38542330752459 -9.55783688716786 0.0
-1.35619542004281 -8.99213997513777 0.0
-1.66432698387923 -9.56456562782115 0.0
-1.69777049023664 -10.1413618688805 0.0
-1.41329132199203 -10.1349536904832 0.0
-1.38542330752459 -9.55783688716786 0.0
-1.69777049023664 -10.1413618688805 0.0
-1.72958277073272 -10.7290353462618 0.0
-1.43979939190818 -10.7229476027993 0.0
-1.41329132199203 -10.1349536904832 0.0
-1.72958277073272 -10.7290353462618 0.0
-1.75976384126233 -11.3270443069248 0.0
-1.46494751884863 -11.3212767077746 0.0
-1.43979939190818 -10.7229476027993 0.0
-1.75976384126233 -11.3270443069248 0.0
-1.78831368569863 -11.9348484511115 0.0
-1.48873587456439 -11.9294004302405 0.0
-1.46494751884863 -11.3212767077746 0.0
-1.78831368569863 -11.9348484511115 0.0
-1.81523222149427 -12.551909606641 0.0
-1.51116496490505 -12.5467801619097 0.0
-1.48873587456439 -11.9294004302405 0.0
-1.81523222149427 -12.551909606641 0.0
-1.84051924145493 -13.1776925334696 0.0
-1.53223588676726 -13.172880013715 0.0
-1.51116496490505 -12.5467801619097 0.0
-1.84051924145493 -13.1776925334696 0.0
-1.86417431419783 -13.8116657397307 0.0
-1.55195069883574 -13.8071675944725 0.0
-1.53223588676726 -13.172880013715 0.0
-1.86417431419783 -13.8116657397307 0.0
-1.88619660720929 -14.4533020259542 0.0
-1.57031289878976 -14.4491145744995 0.0
-1.55195069883574 -13.8071675944725 0.0
-1.88619660720929 -14.4533020259542 0.0
-1.90658455610678 -15.102078193947 0.0
-1.58732792285329 -15.0981965535591 0.0
-1.57031289878976 -14.4491145744995 0.0
-1.90658455610678 -15.102078193947 0.0
-1.92533522358402 -15.7574729150003 0.0
-1.60300341566528 -15.7538913737633 0.0
-1.58732792285329 -15.0981965535591 0.0
-1.92533522358402 -15.7574729150003 0.0
-1.94244305221457 -16.4189611128895 0.0
-1.61734870478451 -16.4156744572002 0.0
-1.60300341566528 -15.7538913737633 0.0
-1.94244305221457 -16.4189611128895 0.0
-1.95789752197674 -17.0860023979186 0.0
-1.63037242106186 -17.0830089802842 0.0
-1.61734870478451 -16.4156744572002 0.0
-1.95789752197674 -17.0860023979186 0.0
-1.97167907237051 -17.7580202569081 0.0
-1.64207662256397 -17.7553277712226 0.0
-1.63037242106186 -17.0830089802842 0.0
-1.97167907237051 -17.7580202569081 0.0
-1.98375284227701 -18.4343683724857 0.0
-1.65244552884675 -18.432003006679 0.0
-1.64207662256397 -17.7553277712226 0.0
-1.98375284227701 -18.4343683724857 0.0
-1.99406092705344 -19.1142817889359 0.0
-1.66142809601982 -19.1122999287558 0.0
-1.65244552884675 -18.432003006679 0.0
-1.99406092705344 -19.1142817889359 0.0
-2.0025167501468 -19.7968158823766 0.0
-1.66891791585953 -19.7953138941427 0.0
-1.66142809601982 -19.1122999287558 0.0
-2.0025167501468 -19.7968158823766 0.0
-2.00901018431864 -20.4807885756923 0.0
-1.67474316417177 -20.4798997373767 0.0
-1.66891791585953 -19.7953138941427 0.0
-2.00901018431864 -20.4807885756923 0.0
-2.01343878553447 -21.164764030481 0.0
-1.67869416941134 -21.16462240684 0.0
-1.67474316417177 -20.4798997373767 0.0
-2.01343878553447 -21.164764030481 0.0
-2.01579154413895 -21.8471431554801 0.0
-1.68063370850469 -21.8477830390015 0.0
-1.67869416941134 -21.16462240684 0.0
-2.01579154413895 -21.8471431554801 0.0
-2.01633620081607 -22.5264173612574 0.0
-1.68074264927552 -22.5275706185619 0.0
-1.68063370850469 -21.8477830390015 0.0
-2.01633620081607 -22.5264173612574 0.0
-2.01599569806749 -23.2015013572817 0.0
-1.67991840510577 -23.2022760706396 0.0
-1.68074264927552 -22.5275706185619 0.0
0 0 0.0
-0.0537391877317303 -0.0169608704587445 0.0
-0.042489532439613 -0.0108030944806778 0.0
0 0 0.0
-0.0537391877317303 -0.0169608704587445 0.0
-0.115223852957527 -0.0696557658204638 0.0
-0.090953683786989 -0.0593096624076047 0.0
-0.042489532439613 -0.0108030944806778 0.0
-0.115223852957527 -0.0696557658204638 0.0
-0.179943954280408 -0.149701754367507 0.0
-0.142339018099777 -0.137608809256542 0.0
-0.090953683786989 -0.0593096624076047 0.0
-0.179943954280408 -0.149701754367507 0.0
-0.244456644331058 -0.254444374871075 0.0
-0.193967883464569 -0.2420554124958 0.0
-0.142339018099777 -0.137608809256542 0.0
-0.244456644331058 -0.254444374871075 0.0
-0.307400057918156 -0.383451491396376 0.0
-0.244515034464172 -0.371314285616487 0.0
-0.193967883464569 -0.2420554124958 0.0
-0.307400057918156 -0.383451491396376 0.0
-0.368564072340488 -0.536574095953806 0.0
-0.293627283331271 -0.52480878695378 0.0
-0.244515034464172 -0.371314285616487 0.0
-0.368564072340488 -0.536574095953806 0.0
-0.428059452750517 -0.713493422100846 0.0
-0.341340707364001 -0.702088409075516 0.0
-0.293627283331271 -0.52480878695378 0.0
-0.428059452750517 -0.713493422100846 0.0
-0.486011918663804 -0.913757594446951 0.0
-0.387766690811254 -0.902678762242471 0.0
-0.341340707364001 -0.702088409075516 0.0
-0.486011918663804 -0.913757594446951 0.0
-0.542507790286404 -1.13685510012128 0.0
-0.432994718139834 -1.12607433155075 0.0
-0.387766690811254 -0.902678762242471 0.0
-0.542507790286404 -1.13685510012128 0.0
-0.597597538977405 -1.38225107363089 0.0
-0.477080337268513 -1.37175055215983 0.0
-0.432994718139834 -1.12607433155075 0.0
-0.597597538977405 -1.38225107363089 0.0
-0.651307380819187 -1.64940265279899 0.0
-0.520053650466557 -1.639172596243 0.0
-0.477080337268513 -1.37175055215983 0.0
-0.651307380819187 -1.64940265279899 0.0
-0.703649766255918 -1.93776497689773 0.0
-0.561929360979733 -1.92780052758972 0.0
-0.520053650466557 -1.639172596243 0.0
-0.703649766255918 -1.93776497689773 0.0
-0.75463005937654 -2.24679308370189 0.0
-0.602713999296936 -2.23709204976637 0.0
-0.561929360979733 -1.92780052758972 0.0
-0.75463005937654 -2.24679308370189 0.0
-0.804250312294754 -2.57594236689472 0.0
-0.64241016032181 -2.56650385818394 0.0
-0.602713999296936 -2.23709204976637 0.0
-0.804250312294754 -2.57594236689472 0.0
-0.85251117137029 -2.92466855954502 0.0
-0.681018719961264 -2.91549226506852 0.0
-0.64241016032181 -2.56650385818394 0.0
-0.85251117137029 -2.92466855954502 0.0
-0.899412757901081 -3.29242762242226 0.0
-0.718539884902269 -3.28351346181784 0.0
-0.681018719961264 -2.91549226506852 0.0
-0.899412757901081 -3.29242762242226 0.0
-0.944955035150289 -3.67867564524414 0.0
-0.754973644011676 -3.67002361649887 0.0
-0.718539884902269 -3.28351346181784 0.0
-0.944955035150289 -3.67867564524414 0.0
-0.989137942017443 -4.08286878205591 0.0
-0.790319939909987 -4.07447890231972 0.0
-0.754973644011676 -3.67002361649887 0.0
-0.989137942017443 -4.08286878205591 0.0
-1.03196143094617 -4.50446321412662 0.0
-0.824578722101314 -4.49633550079147 0.0
-0.790319939909987 -4.07447890231972 0.0
-1.03196143094617 -4.50446321412662 0.0
-1.0734254717647 -4.94291513003883 0.0
-0.8577499557472 -4.93504959735169 0.0
-0.824578722101314 -4.49633550079147 0.0
-1.0734254717647 -4.94291513003883 0.0
-1.1135300461835 -5.39768071501471 0.0
-0.889833616759915 -5.39007737579729 0.0
-0.8577499557472 -4.93504959735169 0.0
-1.1135300461835 -5.39768071501471 0.0
-1.15227514137374 -5.86821614478229 0.0
-0.920829684169115 -5.86087501338339 0.0
-0.889833616759915 -5.39007737579729 0.0
-1.15227514137374 -5.86821614478229 0.0
-1.18966074461789 -6.35397758189349 0.0
-0.950738132676683 -6.34689867716956 0.0
-0.920829684169115 -5.86087501338339 0.0
-1.18966074461789 -6.35397758189349 0.0
-1.22568683890896 -6.85442117440157 0.0
-0.979558925541754 -6.8476045223603 0.0
-0.950738132676683 -6.34689867716956 0.0
-1.22568683890896 -6.85442117440157 0.0
-1.26035339897118 -7.36900305858626 0.0
-1.00729200738653 -7.36244869431548 0.0
-0.979558925541754 -6.8476045223603 0.0
-1.26035339897118 -7.36900305858626 0.0
-1.29366038741475 -7.89717936941791 0.0
-1.03393729692688 -7.89088733743981 0.0
-1.00729200738653 -7.36244869431548 0.0
-1.29366038741475 -7.89717936941791 0.0
-1.32560775127725 -8.43840626505348 0.0
-1.05949468064955 -8.4323766163703 0.0
-1.03393729692688 -7.89088733743981 0.0
-1.32560775127725 -8.43840626505348 0.0
-1.35619542004281 -8.99213997513777 0.0
-1.08396401016275 -8.98637275790129 0.0
-1.05949468064955 -8.4323766163703 0.0
-1.35619542004281 -8.99213997513777 0.0
-1.38542330752459 -9.55783688716786 0.0
-1.1073451086596 -9.55233212597994 0.0
-1.08396401016275 -8.98637275790129 0.0
-1.38542330752459 -9.55783688716786 0.0
-1.41329132199203 -10.1349536904832 0.0
-1.12963779611629 -10.1297113467033 0.0
-1.1073451086596 -9.55233212597994 0.0
-1.41329132199203 -10.1349536904832 0.0
-1.43979939190818 -10.7229476027993 0.0
-1.1508419490218 -10.7179675048938 0.0
-1.12963779611629 -10.1297113467033 0.0
-1.43979939190818 -10.7229476027993 0.0
-1.46494751884863 -11.3212767077746 0.0
-1.17095761902127 -11.3165584369985 0.0
-1.1508419490218 -10.7179675048938 0.0
-1.46494751884863 -11.3212767077746 0.0
-1.48873587456439 -11.9294004302405 0.0
-1.18998524579504 -11.9249431437659 0.0
-1.17095761902127 -11.3165584369985 0.0
-1.48873587456439 -11.9294004302405 0.0
-1.51116496490505 -12.5467801619097 0.0
-1.20792601146761 -12.542582335189 0.0
-1.18998524579504 -11.9249431437659 0.0
-1.51116496490505 -12.5467801619097 0.0
-1.53223588676726 -13.172880013715 0.0
-1.22478239269812 -13.1689390910981 0.0
-1.20792601146761 -12.542582335189 0.0
-1.53223588676726 -13.172880013715 0.0
-1.55195069883574 -13.8071675944725 0.0
-1.24055896253598 -13.8034795607448 0.0
-1.22478239269812 -13.1689390910981 0.0
-1.55195069883574 -13.8071675944725 0.0
-1.57031289878976 -14.4491145744995 0.0
-1.25526345692872 -14.4456735154514 0.0
-1.24055896253598 -13.8034795607448 0.0
-1.57031289878976 -14.4491145744995 0.0
-1.58732792285329 -15.0981965535591 0.0
-1.2689080130704 -15.0949943850514 0.0
-1.25526345692872 -14.4456735154514 0.0
-1.58732792285329 -15.0981965535591 0.0
-1.60300341566528 -15.7538913737633 0.0
-1.28151024696064 -15.7509181180646 0.0
-1.2689080130704 -15.0949943850514 0.0
-1.60300341566528 -15.7538913737633 0.0
-1.61734870478451 -16.4156744572002 0.0
-1.29309338034261 -16.4129197608179 0.0
-1.28151024696064 -15.7509181180646 0.0
-1.61734870478451 -16.4156744572002 0.0
-1.63037242106186 -17.0830089802842 0.0
-1.30368387572534 -17.0804659825618 0.0
-1.29309338034261 -16.4129197608179 0.0
-1.63037242106186 -17.0830089802842 0.0
-1.64207662256397 -17.7553277712226 0.0
-1.31330404325708 -17.7530007860254 0.0
-1.30368387572534 -17.0804659825618 0.0
-1.64207662256397 -17.7553277712226 0.0
-1.65244552884675 -18.432003006679 0.0
-1.32195631914792 -18.4299202798336 0.0
-1.31330404325708 -17.7530007860254 0.0
-1.65244552884675 -18.432003006679 0.0
-1.66142809601982 -19.1122999287558 0.0
-1.32959679084127 -19.1105309467279 0.0
-1.32195631914792 -18.4299202798336 0.0
-1.66142809601982 -19.1122999287558 0.0
-1.66891791585953 -19.7953138941427 0.0
-1.33610085457645 -19.7939857744963 0.0
-1.32959679084127 -19.1105309467279 0.0
-1.66891791585953 -19.7953138941427 0.0
-1.67474316417177 -20.4798997373767 0.0
-1.34123731483394 -20.479197709492 0.0
-1.33610085457645 -19.7939857744963 0.0
-1.67474316417177 -20.4798997373767 0.0
-1.67869416941134 -21.16462240684 0.0
-1.34469013393244 -21.1647460445849 0.0
-1.34123731483394 -20.479197709492 0.0
-1.67869416941134 -21.16462240684 0.0
-1.68063370850469 -21.8477830390015 0.0
-1.34619015285374 -21.8488202469238 0.0
-1.34469013393244 -21.1647460445849 0.0
-1.68063370850469 -21.8477830390015 0.0
-1.68074264927552 -22.5275706185619 0.0
-1.34581037898174 -22.5292660527934 0.0
-1.34619015285374 -21.8488202469238 0.0
-1.68074264927552 -22.5275706185619 0.0
-1.67991840510577 -23.2022760706396 0.0
-1.34438606836089 -23.2037385928627 0.0
-1.34581037898174 -22.5292660527934 0.0
0 0 0.0
-0.042489532439613 -0.0108030944806778 0.0
-0.0316079022635104 -0.0063414106172995 0.0
0 0 0.0
-0.042489532439613 -0.0108030944806778 0.0
-0.090953683786989 -0.0593096624076047 0.0
-0.0675611057476609 -0.0516076116083005 0.0
-0.0316079022635104 -0.0063414106172995 0.0
-0.090953683786989 -0.0593096624076047 0.0
-0.142339018099777 -0.137608809256542 0.0
-0.105850888418412 -0.128365041250176 0.0
-0.0675611057476609 -0.0516076116083005 0.0
-0.142339018099777 -0.137608809256542 0.0
-0.193967883464569 -0.2420554124958 0.0
-0.144544742892339 -0.232430954488716 0.0
-0.105850888418412 -0.128365041250176 0.0
-0.193967883464569 -0.2420554124958 0.0
-0.244515034464172 -0.371314285616487 0.0
-0.182547527154707 -0.361830511504671 0.0
-0.144544742892339 -0.232430954488716 0.0
-0.244515034464172 -0.371314285616487 0.0
-0.293627283331271 -0.52480878695378 0.0
-0.219487604904187 -0.515614651292646 0.0
-0.182547527154707 -0.361830511504671 0.0
-0.293627283331271 -0.52480878695378 0.0
-0.341340707364001 -0.702088409075516 0.0
-0.255347823675834 -0.693189241203945 0.0
-0.219487604904187 -0.515614651292646 0.0
-0.341340707364001 -0.702088409075516 0.0
-0.387766690811254 -0.902678762242471 0.0
-0.290210308844898 -0.894045992918781 0.0
-0.255347823675834 -0.693189241203945 0.0
-0.387766690811254 -0.902678762242471 0.0
-0.432994718139834 -1.12607433155075 0.0
-0.324152959966369 -1.11768140562177 0.0
-0.290210308844898 -0.894045992918781 0.0
-0.432994718139834 -1.12607433155075 0.0
-0.477080337268513 -1.37175055215983 0.0
-0.357226979221624 -1.36357994874653 0.0
-0.324152959966369 -1.11768140562177 0.0
-0.477080337268513 -1.37175055215983 0.0
-0.520053650466557 -1.639172596243 0.0
-0.389460941508414 -1.63121446714326 0.0
-0.357226979221624 -1.36357994874653 0.0
-0.520053650466557 -1.639172596243 0.0
-0.561929360979733 -1.92780052758972 0.0
-0.420869112346109 -1.92004991355304 0.0
-0.389460941508414 -1.63121446714326 0.0
-0.561929360979733 -1.92780052758972 0.0
-0.602713999296936 -2.23709204976637 0.0
-0.451457949895859 -2.2295466801508 0.0
-0.420869112346109 -1.92004991355304 0.0
-0.602713999296936 -2.23709204976637 0.0
-0.64241016032181 -2.56650385818394 0.0
-0.481230083028984 -2.55916279583164 0.0
-0.451457949895859 -2.2295466801508 0.0
-0.64241016032181 -2.56650385818394 0.0
-0.681018719961264 -2.91549226506852 0.0
-0.510186434382261 -2.90835517374841 0.0
-0.481230083028984 -2.55916279583164 0.0
-0.681018719961264 -2.91549226506852 0.0
-0.718539884902269 -3.28351346181784 0.0
-0.538327245756905 -3.27658024898525 0.0
-0.510186434382261 -2.90835517374841 0.0
-0.718539884902269 -3.28351346181784 0.0
-0.754973644011676 -3.67002361649887 0.0
-0.565652527335696 -3.66329427485921 0.0
-0.538327245756905 -3.27658024898525 0.0
-0.754973644011676 -3.67002361649887 0.0
-0.790319939909987 -4.07447890231972 0.0
-0.592162232983439 -4.06795344722045 0.0
-0.565652527335696 -3.66329427485921 0.0
-0.790319939909987 -4.07447890231972 0.0
-0.824578722101314 -4.49633550079147 0.0
-0.617856317069639 -4.49001394962833 0.0
-0.592162232983439 -4.06795344722045 0.0
-0.824578722101314 -4.49633550079147 0.0
-0.8577499557472 -4.93504959735169 0.0
-0.642734745530459 -4.92893196557312 0.0
-0.617856317069639 -4.49001394962833 0.0
-0.8577499557472 -4.93504959735169 0.0
-0.889833616759915 -5.39007737579729 0.0
-0.666797491830412 -5.38416367862113 0.0
-0.642734745530459 -4.92893196557312 0.0
-0.889833616759915 -5.39007737579729 0.0
-0.920829684169115 -5.86087501338339 0.0
-0.690044529072697 -5.85516526910457 0.0
-0.666797491830412 -5.38416367862113 0.0
-0.920829684169115 -5.86087501338339 0.0
-0.950738132676683 -6.34689867716956 0.0
-0.712475821423087 -6.34139291071294 0.0
-0.690044529072697 -5.85516526910457 0.0
-0.950738132676683 -6.34689867716956 0.0
-0.979558925541754 -6.8476045223603 0.0
-0.734091315170519 -6.84230276859353 0.0
-0.712475821423087 -6.34139291071294 0.0
-0.979558925541754 -6.8476045223603 0.0
-1.00729200738653 -7.36244869431548 0.0
-0.754890929220135 -7.3573510005615 0.0
-0.734091315170519 -6.84230276859353 0.0
-1.00729200738653 -7.36244869431548 0.0
-1.03393729692688 -7.89088733743981 0.0
-0.774874545412476 -7.88599376399093 0.0
-0.754890929220135 -7.3573510005615 0.0
-1.03393729692688 -7.89088733743981 0.0
-1.05949468064955 -8.4323766163703 0.0
-0.794042000496053 -8.42768723265764 0.0
-0.774874545412476 -7.88599376399093 0.0
-1.05949468064955 -8.4323766163703 0.0
-1.08396401016275 -8.98637275790129 0.0
-0.812393084031395 -8.98188763020606 0.0
-0.794042000496053 -8.42768723265764 0.0
-1.08396401016275 -8.98637275790129 0.0
-1.1073451086596 -9.55233212597994 0.0
-0.829927550428319 -9.54805129001143 0.0
-0.812393084031395 -8.98188763020606 0.0
-1.1073451086596 -9.55233212597994 0.0
-1.12963779611629 -10.1297113467033 0.0
-0.846645159341203 -10.1256347548541 0.0
-0.829927550428319 -9.54805129001143 0.0
-1.12963779611629 -10.1297113467033 0.0
-1.1508419490218 -10.7179675048938 0.0
-0.862545767459419 -10.7140949335077 0.0
-0.846645159341203 -10.1256347548541 0.0
-1.1508419490218 -10.7179675048938 0.0
-1.17095761902127 -11.3165584369985 0.0
-0.877629506863904 -11.312889333923 0.0
-0.862545767459419 -10.7140949335077 0.0
-1.17095761902127 -11.3165584369985 0.0
-1.18998524579504 -11.9249431437659 0.0
-0.891897100472318 -11.9214763920062 0.0
-0.877629506863904 -11.312889333923 0.0
-1.18998524579504 -11.9249431437659 0.0
-1.20792601146761 -12.542582335189 0.0
-0.905350381947564 -12.5393159074181 0.0
-0.891897100472318 -11.9214763920062 0.0
-1.20792601146761 -12.542582335189 0.0
-1.22478239269812 -13.1689390910981 0.0
-0.917993100619769 -13.1658695777801 0.0
-0.905350381947564 -12.5393159074181 0.0
-1.22478239269812 -13.1689390910981 0.0
-1.24055896253598 -13.8034795607448 0.0
-0.92983208954966 -13.8006015822605 0.0
-0.917993100619769 -13.1658695777801 0.0
-1.24055896253598 -13.8034795607448 0.0
-1.25526345692872 -14.4456735154514 0.0
-0.940878832773219 -14.4429790941385 0.0
-0.92983208954966 -13.8006015822605 0.0
-1.25526345692872 -14.4456735154514 0.0
-1.2689080130704 -15.0949943850514 0.0
-0.951151341795534 -15.092472485382 0.0
-0.940878832773219 -14.4429790941385 0.0
-1.2689080130704 -15.0949943850514 0.0
-1.28151024696064 -15.7509181180646 0.0
-0.960675967551258 -15.7485548024959 0.0
-0.951151341795534 -15.092472485382 0.0
-1.28151024696064 -15.7509181180646 0.0
-1.29309338034261 -16.4129197608179 0.0
-0.969488223176982 -16.4106997975077 0.0
-0.960675967551258 -15.7485548024959 0.0
-1.29309338034261 -16.4129197608179 0.0
-1.30368387572534 -17.0804659825618 0.0
-0.977630750498723 -17.0783772852779 0.0
-0.969488223176982 -16.4106997975077 0.0
-1.30368387572534 -17.0804659825618 0.0
-1.31330404325708 -17.7530007860254 0.0
-0.985145196173444 -17.7510436258814 0.0
-0.977630750498723 -17.0783772852779 0.0
-1.31330404325708 -17.7530007860254 0.0
-1.32195631914792 -18.4299202798336 0.0
-0.992053367153072 -18.4281232517855 0.0
-0.985145196173444 -17.7510436258814 0.0
-1.32195631914792 -18.4299202798336 0.0
-1.32959679084127 -19.1105309467279 0.0
-0.998323179611144 -19.1089738997512 0.0
-0.992053367153072 -18.4281232517855 0.0
-1.32959679084127 -19.1105309467279 0.0
-1.33610085457645 -19.7939857744963 0.0
-1.00382036356428 -19.7928240208192 0.0
-0.998323179611144 -19.1089738997512 0.0
-1.33610085457645 -19.7939857744963 0.0
-1.34123731483394 -20.479197709492 0.0
-1.0082635505508 -20.4786693347814 0.0
-1.00382036356428 -19.7928240208192 0.0
-1.34123731483394 -20.479197709492 0.0
-1.34469013393244 -21.1647460445849 0.0
-1.01123168285235 -21.1651260720263 0.0
-1.0082635505508 -20.4786693347814 0.0
-1.34469013393244 -21.1647460445849 0.0
-1.34619015285374 -21.8488202469238 0.0
-1.0123055769271 -21.8502747108448 0.0
-1.01123168285235 -21.1651260720263 0.0
-1.34619015285374 -21.8488202469238 0.0
-1.34581037898174 -22.5292660527934 0.0
-1.01141007302007 -22.5315893791692 0.0
-1.0123055769271 -21.8502747108448 0.0
-1.34581037898174 -22.5292660527934 0.0
-1.34438606836089 -23.2037385928627 0.0
-1.00928189924141 -23.2060669408315 0.0
-1.01141007302007 -22.5315893791692 0.0
0 0 0.0
-0.0316079022635104 -0.0063414106172995 0.0
-0.0209584480727812 -0.00331138816245013 0.0
0 0 0.0
-0.0316079022635104 -0.0063414106172995 0.0
-0.0675611057476609 -0.0516076116083005 0.0
-0.0447484600667825 -0.0462842754489148 0.0
-0.0209584480727812 -0.00331138816245013 0.0
-0.0675611057476609 -0.0516076116083005 0.0
-0.105850888418412 -0.128365041250176 0.0
-0.0701512611993399 -0.121858083938027 0.0
-0.0447484600667825 -0.0462842754489148 0.0
-0.105850888418412 -0.128365041250176 0.0
-0.144544742892339 -0.232430954488716 0.0
-0.095921783438159 -0.225572308056964 0.0
-0.0701512611993399 -0.121858083938027 0.0
-0.144544742892339 -0.232430954488716 0.0
-0.182547527154707 -0.361830511504671 0.0
-0.121293341266576 -0.355036515665053 0.0
-0.095921783438159 -0.225572308056964 0.0
-0.182547527154707 -0.361830511504671 0.0
-0.219487604904187 -0.515614651292646 0.0
-0.145969519169171 -0.509023501235308 0.0
-0.121293341266576 -0.355036515665053 0.0
-0.219487604904187 -0.515614651292646 0.0
-0.255347823675834 -0.693189241203945 0.0
-0.169914155354966 -0.686815796242897 0.0
-0.145969519169171 -0.509023501235308 0.0
-0.255347823675834 -0.693189241203945 0.0
-0.290210308844898 -0.894045992918781 0.0
-0.193178344480737 -0.887870061876208 0.0
-0.169914155354966 -0.686815796242897 0.0
-0.290210308844898 -0.894045992918781 0.0
-0.324152959966369 -1.11768140562177 0.0
-0.215818363427942 -1.11168157592642 0.0
-0.193178344480737 -0.887870061876208 0.0
-0.324152959966369 -1.11768140562177 0.0
-0.357226979221624 -1.36357994874653 0.0
-0.237873053436233 -1.35774157719323 0.0
-0.215818363427942 -1.11168157592642 0.0
-0.357226979221624 -1.36357994874653 0.0
-0.389460941508414 -1.63121446714326 0.0
-0.259364574898764 -1.62552917743304 0.0
-0.237873053436233 -1.35774157719323 0.0
-0.389460941508414 -1.63121446714326 0.0
-0.420869112346109 -1.92004991355304 0.0
-0.280304152181528 -1.91451343713186 0.0
-0.259364574898764 -1.62552917743304 0.0
-0.420869112346109 -1.92004991355304 0.0
-0.451457949895859 -2.2295466801508 0.0
-0.30069693325353 -2.22415704289257 0.0
-0.280304152181528 -1.91451343713186 0.0
-0.451457949895859 -2.2295466801508 0.0
-0.481230083028984 -2.55916279583164 0.0
-0.320545045086459 -2.55391917296277 0.0
-0.30069693325353 -2.22415704289257 0.0
-0.481230083028984 -2.55916279583164 0.0
-0.510186434382261 -2.90835517374841 0.0
-0.339849252014569 -2.90325726398787 0.0
-0.320545045086459 -2.55391917296277 0.0
-0.510186434382261 -2.90835517374841 0.0
-0.538327245756905 -3.27658024898525 0.0
-0.358609765968601 -3.27162796597592 0.0
-0.339849252014569 -2.90325726398787 0.0
-0.538327245756905 -3.27658024898525 0.0
-0.565652527335696 -3.66329427485921 0.0
-0.376826605985272 -3.65848760908127 0.0
-0.358609765968601 -3.27162796597592 0.0
-0.565652527335696 -3.66329427485921 0.0
-0.592162232983439 -4.06795344722045 0.0
-0.394499740609721 -4.06329241078417 0.0
-0.376826605985272 -3.65848760908127 0.0
-0.592162232983439 -4.06795344722045 0.0
-0.617856317069639 -4.49001394962833 0.0
-0.411629135119243 -4.48549855787595 0.0
-0.394499740609721 -4.06329241078417 0.0
-0.617856317069639 -4.49001394962833 0.0
-0.642734745530459 -4.92893196557312 0.0
-0.42821476113804 -4.92456223349252 0.0
-0.411629135119243 -4.48549855787595 0.0
-0.642734745530459 -4.92893196557312 0.0
-0.666797491830412 -5.38416367862113 0.0
-0.444256593186974 -5.37993962257566 0.0
-0.42821476113804 -4.92456223349252 0.0
-0.666797491830412 -5.38416367862113 0.0
-0.690044529072697 -5.85516526910457 0.0
-0.459754601262602 -5.85108691023177 0.0
-0.444256593186974 -5.37993962257566 0.0
-0.690044529072697 -5.85516526910457 0.0
-0.712475821423087 -6.34139291071294 0.0
-0.474708742038548 -6.33746027874654 0.0
-0.459754601262602 -5.85108691023177 0.0
-0.712475821423087 -6.34139291071294 0.0
-0.734091315170519 -6.84230276859353 0.0
-0.489118949004796 -6.83851590556224 0.0
-0.474708742038548 -6.33746027874654 0.0
-0.734091315170519 -6.84230276859353 0.0
-0.754890929220135 -7.3573510005615 0.0
-0.502985121551244 -7.35370996363316 0.0
-0.489118949004796 -6.83851590556224 0.0
-0.754890929220135 -7.3573510005615 0.0
-0.774874545412476 -7.88599376399093 0.0
-0.516307113786066 -7.88249862595159 0.0
-0.502985121551244 -7.35370996363316 0.0
-0.774874545412476 -7.88599376399093 0.0
-0.794042000496053 -8.42768723265764 0.0
-0.529084725629594 -8.42433807714239 0.0
-0.516307113786066 -7.88249862595159 0.0
-0.794042000496053 -8.42768723265764 0.0
-0.812393084031395 -8.98188763020606 0.0
-0.541317701733634 -8.9786845366821 0.0
-0.529084725629594 -8.42433807714239 0.0
-0.812393084031395 -8.98188763020606 0.0
-0.829927550428319 -9.54805129001143 0.0
-0.553005748606518 -9.54499430044278 0.0
-0.541317701733634 -8.9786845366821 0.0
-0.829927550428319 -9.54805129001143 0.0
-0.846645159341203 -10.1256347548541 0.0
-0.564148587715467 -10.1227238097651 0.0
-0.553005748606518 -9.54499430044278 0.0
-0.846645159341203 -10.1256347548541 0.0
-0.862545767459419 -10.7140949335077 0.0
-0.574746073089921 -10.7113297598001 0.0
-0.564148587715467 -10.1227238097651 0.0
-0.862545767459419 -10.7140949335077 0.0
-0.877629506863904 -11.312889333923 0.0
-0.584798416668386 -11.3102692607161 0.0
-0.574746073089921 -10.7113297598001 0.0
-0.877629506863904 -11.312889333923 0.0
-0.891897100472318 -11.9214763920062 0.0
-0.594306583196543 -11.9190000653072 0.0
-0.584798416668386 -11.3102692607161 0.0
-0.891897100472318 -11.9214763920062 0.0
-0.905350381947564 -12.5393159074181 0.0
-0.603272937005344 -12.5369808726834 0.0
-0.594306583196543 -11.9190000653072 0.0
-0.905350381947564 -12.5393159074181 0.0
-0.917993100619769 -13.1658695777801 0.0
-0.611702239895592 -13.1636717075934 0.0
-0.603272937005344 -12.5369808726834 0.0
-0.917993100619769 -13.1658695777801 0.0
-0.92983208954966 -13.8006015822605 0.0
-0.619603100042287 -13.7985343558359 0.0
-0.611702239895592 -13.1636717075934 0.0
-0.92983208954966 -13.8006015822605 0.0
-0.940878832773219 -14.4429790941385 0.0
-0.626989931259136 -14.4410328057541 0.0
-0.619603100042287 -13.7985343558359 0.0
-0.940878832773219 -14.4429790941385 0.0
-0.951151341795534 -15.092472485382 0.0
-0.633885354250914 -15.0906336015271 0.0
-0.626989931259136 -14.4410328057541 0.0
-0.951151341795534 -15.092472485382 0.0
-0.960675967551258 -15.7485548024959 0.0
-0.640322678347813 -15.7468059481901 0.0
-0.633885354250914 -15.0906336015271 0.0
-0.960675967551258 -15.7485548024959 0.0
-0.969488223176982 -16.4106997975077 0.0
-0.646347520504405 -16.4090212871872 0.0
-0.640322678347813 -15.7468059481901 0.0
-0.969488223176982 -16.4106997975077 0.0
-0.977630750498723 -17.0783772852779 0.0
-0.652016578383421 -17.0767517632295 0.0
-0.646347520504405 -16.4090212871872 0.0
-0.977630750498723 -17.0783772852779 0.0
-0.985145196173444 -17.7510436258814 0.0
-0.657389918786774 -17.7494661730827 0.0
-0.652016578383421 -17.0767517632295 0.0
-0.985145196173444 -17.7510436258814 0.0
-0.992053367153072 -18.4281232517855 0.0
-0.662511018432864 -18.4266197896253 0.0
-0.657389918786774 -17.7494661730827 0.0
-0.992053367153072 -18.4281232517855 0.0
-0.998323179611144 -19.1089738997512 0.0
-0.667367559612113 -19.107629452788 0.0
-0.662511018432864 -18.4266197896253 0.0
-0.998323179611144 -19.1089738997512 0.0
-1.00382036356428 -19.7928240208192 0.0
-0.671829990012558 -19.7918163338894 0.0
-0.667367559612113 -19.107629452788 0.0
-1.00382036356428 -19.7928240208192 0.0
-1.0082635505508 -20.4786693347814 0.0
-0.675582753461076 -20.4782883076815 0.0
-0.671829990012558 -19.7918163338894 0.0
-1.0082635505508 -20.4786693347814 0.0
-1.01123168285235 -21.1651260720263 0.0
-0.678103328164588 -21.1657349826111 0.0
-0.675582753461076 -20.4782883076815 0.0
-1.01123168285235 -21.1651260720263 0.0
-1.0123055769271 -21.8502747108448 0.0
-0.678795494670356 -21.8521511356143 0.0
-0.678103328164588 -21.1657349826111 0.0
-1.0123055769271 -21.8502747108448 0.0
-1.01141007302007 -22.5315893791692 0.0
-0.677378890558735 -22.534620692872 0.0
-0.678795494670356 -21.8521511356143 0.0
-1.01141007302007 -22.5315893791692 0.0
-1.00928189924141 -23.2060669408315 0.0
-0.674452248234597 -23.2094289972108 0.0
-0.677378890558735 -22.534620692872 0.0
0 0 0.0
-0.0209584480727812 -0.00331138816245013 0.0
-0.0104469388211557 -0.00155148289605769 0.0
0 0 0.0
-0.0209584480727812 -0.00331138816245013 0.0
-0.0447484600667825 -0.0462842754489148 0.0
-0.02229008490511 -0.0431594281827538 0.0
-0.0104469388211557 -0.00155148289605769 0.0
-0.0447484600667825 -0.0462842754489148 0.0
-0.0701512611993399 -0.121858083938027 0.0
-0.034953649860624 -0.11799421849847 0.0
-0.02229008490511 -0.0431594281827538 0.0
-0.0701512611993399 -0.121858083938027 0.0
-0.095921783438159 -0.225572308056964 0.0
-0.0478290992207189 -0.221466187153263 0.0
-0.034953649860624 -0.11799421849847 0.0
-0.095921783438159 -0.225572308056964 0.0
-0.121293341266576 -0.355036515665053 0.0
-0.060524222722866 -0.350953375593227 0.0
-0.0478290992207189 -0.221466187153263 0.0
-0.121293341266576 -0.355036515665053 0.0
-0.145969519169171 -0.509023501235308 0.0
-0.0728768216326348 -0.505059203500967 0.0
-0.060524222722866 -0.350953375593227 0.0
-0.145969519169171 -0.509023501235308 0.0
-0.169914155354966 -0.686815796242897 0.0
-0.0848608259054299 -0.682984550045616 0.0
-0.0728768216326348 -0.505059203500967 0.0
-0.169914155354966 -0.686815796242897 0.0
-0.193178344480737 -0.887870061876208 0.0
-0.0965000893404302 -0.88416029282724 0.0
-0.0848608259054299 -0.682984550045616 0.0
-0.193178344480737 -0.887870061876208 0.0
-0.215818363427942 -1.11168157592642 0.0
-0.107823843782894 -1.1080795241301 0.0
-0.0965000893404302 -0.88416029282724 0.0
-0.215818363427942 -1.11168157592642 0.0
-0.237873053436233 -1.35774157719323 0.0
-0.118852935314234 -1.35423756052464 0.0
-0.107823843782894 -1.1080795241301 0.0
-0.237873053436233 -1.35774157719323 0.0
-0.259364574898764 -1.62552917743304 0.0
-0.129599428934561 -1.62211759084482 0.0
-0.118852935314234 -1.35423756052464 0.0
-0.259364574898764 -1.62552917743304 0.0
-0.280304152181528 -1.91451343713186 0.0
-0.140069487182027 -1.9111914014315 0.0
-0.129599428934561 -1.62211759084482 0.0
-0.280304152181528 -1.91451343713186 0.0
-0.30069693325353 -2.22415704289257 0.0
-0.150265957713131 -2.22092321729702 0.0
-0.140069487182027 -1.9111914014315 0.0
-0.30069693325353 -2.22415704289257 0.0
-0.320545045086459 -2.55391917296277 0.0
-0.160190027279914 -2.55077299295612 0.0
-0.150265957713131 -2.22092321729702 0.0
-0.320545045086459 -2.55391917296277 0.0
-0.339849252014569 -2.90325726398787 0.0
-0.169842128062795 -2.90019852094709 0.0
-0.160190027279914 -2.55077299295612 0.0
-0.339849252014569 -2.90325726398787 0.0
-0.358609765968601 -3.27162796597592 0.0
-0.179222383700833 -3.26865659868154 0.0
-0.169842128062795 -2.90019852094709 0.0
-0.358609765968601 -3.27162796597592 0.0
-0.376826605985272 -3.65848760908127 0.0
-0.18833080841177 -3.65560360986502 0.0
-0.179222383700833 -3.26865659868154 0.0
-0.376826605985272 -3.65848760908127 0.0
-0.394499740609721 -4.06329241078417 0.0
-0.197167386325325 -4.0604957878728 0.0
-0.18833080841177 -3.65560360986502 0.0
-0.394499740609721 -4.06329241078417 0.0
-0.411629135119243 -4.48549855787595 0.0
-0.205732097702409 -4.48278932293827 0.0
-0.197167386325325 -4.0604957878728 0.0
-0.411629135119243 -4.48549855787595 0.0
-0.42821476113804 -4.92456223349252 0.0
-0.214024923670292 -4.92194039954522 0.0
-0.205732097702409 -4.48278932293827 0.0
-0.42821476113804 -4.92456223349252 0.0
-0.444256593186974 -5.37993962257566 0.0
-0.222045842932995 -5.37740520581405 0.0
-0.214024923670292 -4.92194039954522 0.0
-0.444256593186974 -5.37993962257566 0.0
-0.459754601262602 -5.85108691023177 0.0
-0.229794825363051 -5.84863993329936 0.0
-0.222045842932995 -5.37740520581405 0.0
-0.459754601262602 -5.85108691023177 0.0
-0.474708742038548 -6.33746027874654 0.0
-0.237271823773247 -6.33510077454362 0.0
-0.229794825363051 -5.84863993329936 0.0
-0.474708742038548 -6.33746027874654 0.0
-0.489118949004796 -6.83851590556224 0.0
-0.244476763977569 -6.83624392106335 0.0
-0.237271823773247 -6.33510077454362 0.0
-0.489118949004796 -6.83851590556224 0.0
-0.502985121551244 -7.35370996363316 0.0
-0.251409533313438 -7.35152556285111 0.0
-0.244476763977569 -6.83624392106335 0.0
-0.502985121551244 -7.35370996363316 0.0
-0.516307113786066 -7.88249862595159 0.0
-0.258069968746258 -7.8804018902909 0.0
-0.251409533313438 -7.35152556285111 0.0
-0.516307113786066 -7.88249862595159 0.0
-0.529084725629594 -8.42433807714239 0.0
-0.264457847614927 -8.42232909985609 0.0
-0.258069968746258 -7.8804018902909 0.0
-0.529084725629594 -8.42433807714239 0.0
-0.541317701733634 -8.9786845366821 0.0
-0.270572887410853 -8.97676340579287 0.0
-0.264457847614927 -8.42232909985609 0.0
-0.541317701733634 -8.9786845366821 0.0
-0.553005748606518 -9.54499430044278 0.0
-0.276414766349332 -9.54316106107073 0.0
-0.270572887410853 -8.97676340579287 0.0
-0.553005748606518 -9.54499430044278 0.0
-0.564148587715467 -10.1227238097651 0.0
-0.281983184695681 -10.1209783921214 0.0
-0.276414766349332 -9.54316106107073 0.0
-0.564148587715467 -10.1227238097651 0.0
-0.574746073089921 -10.7113297598001 0.0
-0.287277998709058 -10.7096718531432 0.0
-0.281983184695681 -10.1209783921214 0.0
-0.574746073089921 -10.7113297598001 0.0
-0.584798416668386 -11.3102692607161 0.0
-0.292299475322825 -11.3086981067768 0.0
-0.287277998709058 -10.7096718531432 0.0
-0.584798416668386 -11.3102692607161 0.0
-0.594306583196543 -11.9190000653072 0.0
-0.297048736219738 -11.917514138475 0.0
-0.292299475322825 -11.3086981067768 0.0
-0.594306583196543 -11.9190000653072 0.0
-0.603272937005344 -12.5369808726834 0.0
-0.301528482981861 -12.5355774117587 0.0
-0.297048736219738 -11.917514138475 0.0
-0.603272937005344 -12.5369808726834 0.0
-0.611702239895592 -13.1636717075934 0.0
-0.305744115193925 -13.1623460713969 0.0
-0.301528482981861 -12.5355774117587 0.0
-0.611702239895592 -13.1636717075934 0.0
-0.619603100042287 -13.7985343558359 0.0
-0.309705358953664 -13.7972792037186 0.0
-0.305744115193925 -13.1623460713969 0.0
-0.619603100042287 -13.7985343558359 0.0
-0.626989931259136 -14.4410328057541 0.0
-0.313428491004206 -14.4398371733747 0.0
-0.309705358953664 -13.7972792037186 0.0
-0.626989931259136 -14.4410328057541 0.0
-0.633885354250914 -15.0906336015271 0.0
-0.316939131283834 -15.089482083363 0.0
-0.313428491004206 -14.4398371733747 0.0
-0.633885354250914 -15.0906336015271 0.0
-0.640322678347813 -15.7468059481901 0.0
-0.320275310204426 -15.7456784588255 0.0
-0.316939131283834 -15.089482083363 0.0
-0.640322678347813 -15.7468059481901 0.0
-0.646347520504405 -16.4090212871872 0.0
-0.323489972235109 -16.4078943206687 0.0
-0.320275310204426 -15.7456784588255 0.0
-0.646347520504405 -16.4090212871872 0.0
-0.652016578383421 -17.0767517632295 0.0
-0.326651054396215 -17.0756027831126 0.0
-0.323489972235109 -16.4078943206687 0.0
-0.652016578383421 -17.0767517632295 0.0
-0.657389918786774 -17.7494661730827 0.0
-0.329835485194122 -17.7482837820232 0.0
-0.326651054396215 -17.0756027831126 0.0
-0.657389918786774 -17.7494661730827 0.0
-0.662511018432864 -18.4266197896253 0.0
-0.333110633300392 -18.4254233994719 0.0
-0.329835485194122 -17.7482837820232 0.0
-0.662511018432864 -18.4266197896253 0.0
-0.667367559612113 -19.107629452788 0.0
-0.336493517171053 -19.1065020419429 0.0
-0.333110633300392 -18.4254233994719 0.0
-0.667367559612113 -19.107629452788 0.0
-0.671829990012558 -19.7918163338894 0.0
-0.339878531764292 -19.7909489067255 0.0
-0.336493517171053 -19.1065020419429 0.0
-0.671829990012558 -19.7918163338894 0.0
-0.675582753461076 -20.4782883076815 0.0
-0.342940017205532 -20.4780182076822 0.0
-0.339878531764292 -19.7909489067255 0.0
-0.675582753461076 -20.4782883076815 0.0
-0.678103328164588 -21.1657349826111 0.0
-0.345064261303905 -21.166527210287 0.0
-0.342940017205532 -20.4780182076822 0.0
-0.678103328164588 -21.1657349826111 0.0
-0.678795494670356 -21.8521511356143 0.0
-0.345446821139006 -21.8544365117471 0.0
-0.345064261303905 -21.166527210287 0.0
-0.678795494670356 -21.8521511356143 0.0
-0.677378890558735 -22.534620692872 0.0
-0.343526752697458 -22.5384330522611 0.0
-0.345446821139006 -21.8544365117471 0.0
-0.677378890558735 -22.534620692872 0.0
-0.674452248234597 -23.2094289972108 0.0
-0.339713546121023 -23.2139896375902 0.0
-0.343526752697458 -22.5384330522611 0.0
0 0 0.0
-0.0104469388211557 -0.00155148289605769 0.0
3.26734287344507E-11 -0.000974106954985663 0.0
0 0 0.0
-0.0104469388211557 -0.00155148289605769 0.0
-0.02229008490511 -0.0431594281827538 0.0
8.68297642987736E-11 -0.0421291204659901 0.0
3.26734287344507E-11 -0.000974106954985663 0.0
-0.02229008490511 -0.0431594281827538 0.0
-0.034953649860624 -0.11799421849847 0.0
1.60936592177863E-10 -0.116713149971565 0.0
8.68297642987736E-11 -0.0421291204659901 0.0
-0.034953649860624 -0.11799421849847 0.0
-0.0478290992207189 -0.221466187153263 0.0
2.54173348167297E-10 -0.220099248248346 0.0
1.60936592177863E-10 -0.116713149971565 0.0
-0.0478290992207189 -0.221466187153263 0.0
-0.060524222722866 -0.350953375593227 0.0
3.60836818757981E-10 -0.349591335632625 0.0
2.54173348167297E-10 -0.220099248248346 0.0
-0.060524222722866 -0.350953375593227 0.0
-0.0728768216326348 -0.505059203500967 0.0
4.63707499481769E-10 -0.503736175550598 0.0
3.60836818757981E-10 -0.349591335632625 0.0
-0.0728768216326348 -0.505059203500967 0.0
-0.0848608259054299 -0.682984550045616 0.0
5.24352138098205E-10 -0.681706232186 0.0
4.63707499481769E-10 -0.503736175550598 0.0
-0.0848608259054299 -0.682984550045616 0.0
-0.0965000893404302 -0.88416029282724 0.0
4.68594940628009E-10 -0.882922966142143 0.0
5.24352138098205E-10 -0.681706232186 0.0
-0.0965000893404302 -0.88416029282724 0.0
-0.107823843782894 -1.1080795241301 0.0
1.65622231207418E-10 -1.1068784599348 0.0
4.68594940628009E-10 -0.882922966142143 0.0
-0.107823843782894 -1.1080795241301 0.0
-0.118852935314234 -1.35423756052464 0.0
-6.00357132063412E-10 -1.35306937803507 0.0
1.65622231207418E-10 -1.1068784599348 0.0
-0.118852935314234 -1.35423756052464 0.0
-0.129599428934561 -1.62211759084482 0.0
-2.16573180916724E-09 -1.6209803206106 0.0
-6.00357132063412E-10 -1.35306937803507 0.0
-0.129599428934561 -1.62211759084482 0.0
-0.140069487182027 -1.9111914014315 0.0
-5.02748728758995E-09 -1.91008402773018 0.0
-2.16573180916724E-09 -1.6209803206106 0.0
-0.140069487182027 -1.9111914014315 0.0
-0.150265957713131 -2.22092321729702 0.0
-9.87934875573693E-09 -2.21984526536 0.0
-5.02748728758995E-09 -1.91008402773018 0.0
-0.150265957713131 -2.22092321729702 0.0
-0.160190027279914 -2.55077299295612 0.0
-1.76264146958816E-08 -2.54972426201525 0.0
-9.87934875573693E-09 -2.21984526536 0.0
-0.160190027279914 -2.55077299295612 0.0
-0.169842128062795 -2.90019852094709 0.0
-2.9345070526321E-08 -2.8991789363259 0.0
-1.76264146958816E-08 -2.54972426201525 0.0
-0.169842128062795 -2.90019852094709 0.0
-0.179222383700833 -3.26865659868154 0.0
-4.61306721294408E-08 -3.26766613830244 0.0
-2.9345070526321E-08 -2.8991789363259 0.0
-0.179222383700833 -3.26865659868154 0.0
-0.18833080841177 -3.65560360986502 0.0
-6.87395674686675E-08 -3.6546422712427 0.0
-4.61306721294408E-08 -3.26766613830244 0.0
-0.18833080841177 -3.65560360986502 0.0
-0.197167386325325 -4.0604957878728 0.0
-9.68817555763168E-08 -4.05956357512336 0.0
-6.87395674686675E-08 -3.6546422712427 0.0
-0.197167386325325 -4.0604957878728 0.0
-0.205732097702409 -4.48278932293827 0.0
-1.27954793385787E-07 -4.48188624296 0.0
-9.68817555763168E-08 -4.05956357512336 0.0
-0.205732097702409 -4.48278932293827 0.0
-0.214024923670292 -4.92194039954522 0.0
-1.54931158041771E-07 -4.92106646220497 0.0
-1.27954793385787E-07 -4.48188624296 0.0
-0.214024923670292 -4.92194039954522 0.0
-0.222045842932995 -5.37740520581405 0.0
-1.63030951502718E-07 -5.37656042593873 0.0
-1.54931158041771E-07 -4.92106646220497 0.0
-0.222045842932995 -5.37740520581405 0.0
-0.229794825363051 -5.84863993329936 0.0
-1.24755249381048E-07 -5.84782433363294 0.0
-1.63030951502718E-07 -5.37656042593873 0.0
-0.229794825363051 -5.84863993329936 0.0
-0.237271823773247 -6.33510077454362 0.0
7.12685235826349E-09 -6.33431438929798 0.0
-1.24755249381048E-07 -5.84782433363294 0.0
-0.237271823773247 -6.33510077454362 0.0
-0.244476763977569 -6.83624392106335 0.0
3.08861160869256E-07 -6.83548679962138 0.0
7.12685235826349E-09 -6.33431438929798 0.0
-0.244476763977569 -6.83624392106335 0.0
-0.251409533313438 -7.35152556285111 0.0
8.96984090364983E-07 -7.35079777268459 0.0
3.08861160869256E-07 -6.83548679962138 0.0
-0.251409533313438 -7.35152556285111 0.0
-0.258069968746258 -7.8804018902909 0.0
1.94025543182041E-06 -7.87970351718433 0.0
8.96984090364983E-07 -7.35079777268459 0.0
-0.258069968746258 -7.8804018902909 0.0
-0.264457847614927 -8.42232909985609 0.0
3.66893732131612E-06 -8.42166024192501 0.0
1.94025543182041E-06 -7.87970351718433 0.0
-0.264457847614927 -8.42232909985609 0.0
-0.270572887410853 -8.97676340579287 0.0
6.37470914954807E-06 -8.97612415532273 0.0
3.66893732131612E-06 -8.42166024192501 0.0
-0.270572887410853 -8.97676340579287 0.0
-0.276414766349332 -9.54316106107073 0.0
1.03890109128812E-05 -9.54255146462356 0.0
6.37470914954807E-06 -8.97612415532273 0.0
-0.276414766349332 -9.54316106107073 0.0
-0.281983184695681 -10.1209783921214 0.0
1.6019191793587E-05 -10.1203983744522 0.0
1.03890109128812E-05 -9.54255146462356 0.0
-0.281983184695681 -10.1209783921214 0.0
-0.287277998709058 -10.7096718531432 0.0
2.34096311813592E-05 -10.7091210842168 0.0
1.6019191793587E-05 -10.1203983744522 0.0
-0.287277998709058 -10.7096718531432 0.0
-0.292299475322825 -11.3086981067768 0.0
3.22783008492311E-05 -11.3081757840192 0.0
2.34096311813592E-05 -10.7091210842168 0.0
-0.292299475322825 -11.3086981067768 0.0
-0.297048736219738 -11.917514138475 0.0
4.14580063915482E-05 -11.9170186496735 0.0
3.22783008492311E-05 -11.3081757840192 0.0
-0.297048736219738 -11.917514138475 0.0
-0.301528482981861 -12.5355774117587 0.0
4.81472518372161E-05 -12.5351058407515 0.0
4.14580063915482E-05 -11.9170186496735 0.0
-0.301528482981861 -12.5355774117587 0.0
-0.305744115193925 -13.1623460713969 0.0
4.67527554271485E-05 -13.1618935146492 0.0
4.81472518372161E-05 -12.5351058407515 0.0
-0.305744115193925 -13.1623460713969 0.0
-0.309705358953664 -13.7972792037186 0.0
2.71938887795309E-05 -13.7968378914317 0.0
4.67527554271485E-05 -13.1618935146492 0.0
-0.309705358953664 -13.7972792037186 0.0
-0.313428491004206 -14.4398371733747 0.0
-2.74423407151669E-05 -14.4393954513565 0.0
2.71938887795309E-05 -13.7968378914317 0.0
-0.313428491004206 -14.4398371733747 0.0
-0.316939131283834 -15.089482083363 0.0
-0.000143924294732201 -15.0890234399476 0.0
-2.74423407151669E-05 -14.4393954513565 0.0
-0.316939131283834 -15.089482083363 0.0
-0.320275310204426 -15.7456784588255 0.0
-0.000362396729231107 -15.7451810201646 0.0
-0.000143924294732201 -15.0890234399476 0.0
-0.320275310204426 -15.7456784588255 0.0
-0.323489972235109 -16.4078943206687 0.0
-0.000739775390329656 -16.4073316598951 0.0
-0.000362396729231107 -15.7451810201646 0.0
-0.323489972235109 -16.4078943206687 0.0
-0.326651054396215 -17.0756027831126 0.0
-0.0013515062360599 -17.0749476066342 0.0
-0.000739775390329656 -16.4073316598951 0.0
-0.326651054396215 -17.0756027831126 0.0
-0.329835485194122 -17.7482837820232 0.0
-0.00228846884430345 -17.7475172299478 0.0
-0.0013515062360599 -17.0749476066342 0.0
-0.329835485194122 -17.7482837820232 0.0
-0.333110633300392 -18.4254233994719 0.0
-0.00364257030207915 -18.4245544259139 0.0
-0.00228846884430345 -17.7475172299478 0.0
-0.333110633300392 -18.4254233994719 0.0
-0.336493517171053 -19.1065020419429 0.0
-0.00546916648418921 -19.1056029539547 0.0
-0.00364257030207915 -18.4245544259139 0.0
-0.336493517171053 -19.1065020419429 0.0
-0.339878531764292 -19.7909489067255 0.0
-0.00770908546762672 -19.790211039964 0.0
-0.00546916648418921 -19.1056029539547 0.0
-0.339878531764292 -19.7909489067255 0.0
-0.342940017205532 -20.4780182076822 0.0
-0.0100605845060729 -20.4778162808216 0.0
-0.00770908546762672 -19.790211039964 0.0
-0.342940017205532 -20.4780182076822 0.0
-0.345064261303905 -21.166527210287 0.0
-0.0118427945163043 -21.1674383881537 0.0
-0.0100605845060729 -20.4778162808216 0.0
-0.345064261303905 -21.166527210287 0.0
-0.345446821139006 -21.8544365117471 0.0
-0.0120150225707367 -21.8570945260847 0.0
-0.0118427945163043 -21.1674383881537 0.0
-0.345446821139006 -21.8544365117471 0.0
-0.343526752697458 -22.5384330522611 0.0
-0.00963795128136558 -22.5430902711153 0.0
-0.0120150225707367 -21.8570945260847 0.0
-0.343526752697458 -22.5384330522611 0.0
-0.339713546121023 -23.2139896375902 0.0
-0.00485424787525046 -23.2199208918938 0.0
-0.00963795128136558 -22.5430902711153 0.0
0 0 0.0
3.26734287344507E-11 -0.000974106954985663 0.0
0.010446938883507 -0.00155148292588625 0.0
0 0 0.0
3.26734287344507E-11 -0.000974106954985663 0.0
8.68297642987736E-11 -0.0421291204659901 0.0
0.0222900850714617 -0.0431594282320034 0.0
0.010446938883507 -0.00155148292588625 0.0
8.68297642987736E-11 -0.0421291204659901 0.0
1.60936592177863E-10 -0.116713149971565 0.0
0.0349536501698906 -0.117994218559788 0.0
0.0222900850714617 -0.0431594282320034 0.0
1.60936592177863E-10 -0.116713149971565 0.0
2.54173348167297E-10 -0.220099248248346 0.0
0.0478290997104106 -0.221466187214985 0.0
0.0349536501698906 -0.117994218559788 0.0
2.54173348167297E-10 -0.220099248248346 0.0
3.60836818757981E-10 -0.349591335632625 0.0
0.0605242234197185 -0.350953375632326 0.0
0.0478290997104106 -0.221466187214985 0.0
3.60836818757981E-10 -0.349591335632625 0.0
4.63707499481769E-10 -0.503736175550598 0.0
0.0728768225305484 -0.505059203474128 0.0
0.0605242234197185 -0.350953375632326 0.0
4.63707499481769E-10 -0.503736175550598 0.0
5.24352138098205E-10 -0.681706232186 0.0
0.084860826924752 -0.682984549876877 0.0
0.0728768225305484 -0.505059203474128 0.0
5.24352138098205E-10 -0.681706232186 0.0
4.68594940628009E-10 -0.882922966142143 0.0
0.0965000902592105 -0.884160292391306 0.0
0.084860826924752 -0.682984549876877 0.0
4.68594940628009E-10 -0.882922966142143 0.0
1.65622231207418E-10 -1.1068784599348 0.0
0.107823844127775 -1.10807952323132 0.0
0.0965000902592105 -0.884160292391306 0.0
1.65622231207418E-10 -1.1068784599348 0.0
-6.00357132063412E-10 -1.35306937803507 0.0
0.118852934196523 -1.35423755887325 0.0
0.107823844127775 -1.10807952323132 0.0
-6.00357132063412E-10 -1.35306937803507 0.0
-2.16573180916724E-09 -1.6209803206106 0.0
0.129599424817251 -1.62211758803512 0.0
0.118852934196523 -1.35423755887325 0.0
-2.16573180916724E-09 -1.6209803206106 0.0
-5.02748728758995E-09 -1.91008402773018 0.0
0.140069477569001 -1.91119139693218 0.0
0.129599424817251 -1.62211758803512 0.0
-5.02748728758995E-09 -1.91008402773018 0.0
-9.87934875573693E-09 -2.21984526536 0.0
0.150265938767489 -2.22092321047257 0.0
0.140069477569001 -1.91119139693218 0.0
-9.87934875573693E-09 -2.21984526536 0.0
-1.76264146958816E-08 -2.54972426201525 0.0
0.160189993412149 -2.55077298315291 0.0
0.150265938767489 -2.22092321047257 0.0
-1.76264146958816E-08 -2.54972426201525 0.0
-2.9345070526321E-08 -2.8991789363259 0.0
0.169842071593292 -2.90019850769797 0.0
0.160189993412149 -2.55077298315291 0.0
-2.9345070526321E-08 -2.8991789363259 0.0
-4.61306721294408E-08 -3.26766613830244 0.0
0.179222294811718 -3.26865658211293 0.0
0.169842071593292 -2.90019850769797 0.0
-4.61306721294408E-08 -3.26766613830244 0.0
-6.87395674686675E-08 -3.6546422712427 0.0
0.188330675783063 -3.65560359142842 0.0
0.179222294811718 -3.26865658211293 0.0
-6.87395674686675E-08 -3.6546422712427 0.0
-9.68817555763168E-08 -4.05956357512336 0.0
0.197167199127353 -4.06049577156925 0.0
0.188330675783063 -3.65560359142842 0.0
-9.68817555763168E-08 -4.05956357512336 0.0
-1.27954793385787E-07 -4.48188624296 0.0
0.205731850020681 -4.48278931725222 0.0
0.197167199127353 -4.06049577156925 0.0
-1.27954793385787E-07 -4.48188624296 0.0
-1.54931158041771E-07 -4.92106646220497 0.0
0.21402462299553 -4.92194042033889 0.0
0.205731850020681 -4.48278931725222 0.0
-1.54931158041771E-07 -4.92106646220497 0.0
-1.63030951502718E-07 -5.37656042593873 0.0
0.22204552506215 -5.37740528042638 0.0
0.21402462299553 -4.92194042033889 0.0
-1.63030951502718E-07 -5.37656042593873 0.0
-1.24755249381048E-07 -5.84782433363294 0.0
0.229794578882696 -5.84864010599138 0.0
0.22204552506215 -5.37740528042638 0.0
-1.24755249381048E-07 -5.84782433363294 0.0
7.12685235826349E-09 -6.33431438929798 0.0
0.237271828092881 -6.33510111314703 0.0
0.229794578882696 -5.84864010599138 0.0
7.12685235826349E-09 -6.33431438929798 0.0
3.08861160869256E-07 -6.83548679962138 0.0
0.244477345330651 -6.83624452408157 0.0
0.237271828092881 -6.33510111314703 0.0
3.08861160869256E-07 -6.83548679962138 0.0
8.96984090364983E-07 -7.35079777268459 0.0
0.251411242638952 -7.35152656512284 0.0
0.244477345330651 -6.83624452408157 0.0
8.96984090364983E-07 -7.35079777268459 0.0
1.94025543182041E-06 -7.87970351718433 0.0
0.258073682831542 -7.88040346335864 0.0
0.251411242638952 -7.35152656512284 0.0
1.94025543182041E-06 -7.87970351718433 0.0
3.66893732131612E-06 -8.42166024192501 0.0
0.264464888556902 -8.42233143999132 0.0
0.258073682831542 -7.88040346335864 0.0
3.66893732131612E-06 -8.42166024192501 0.0
6.37470914954807E-06 -8.97612415532273 0.0
0.270585142592603 -8.97676669773111 0.0
0.264464888556902 -8.42233143999132 0.0
6.37470914954807E-06 -8.97612415532273 0.0
1.03890109128812E-05 -9.54255146462356 0.0
0.276434767683395 -9.54316539838549 0.0
0.270585142592603 -8.97676669773111 0.0
1.03890109128812E-05 -9.54255146462356 0.0
1.6019191793587E-05 -10.1203983744522 0.0
0.28201406621328 -10.1209836253933 0.0
0.276434767683395 -9.54316539838549 0.0
1.6019191793587E-05 -10.1203983744522 0.0
2.34096311813592E-05 -10.7091210842168 0.0
0.287323188329316 -10.7096773246127 0.0
0.28201406621328 -10.1209836253933 0.0
2.34096311813592E-05 -10.7091210842168 0.0
3.22783008492311E-05 -11.3081757840192 0.0
0.292361881101733 -11.3087022158342 0.0
0.287323188329316 -10.7096773246127 0.0
3.22783008492311E-05 -11.3081757840192 0.0
4.14580063915482E-05 -11.9170186496735 0.0
0.297129050710565 -11.9175136686935 0.0
0.292361881101733 -11.3087022158342 0.0
4.14580063915482E-05 -11.9170186496735 0.0
4.81472518372161E-05 -12.5351058407515 0.0
0.301622045460785 -12.535566542854 0.0
0.297129050710565 -11.9175136686935 0.0
4.81472518372161E-05 -12.5351058407515 0.0
4.67527554271485E-05 -13.1618935146492 0.0
0.30583554281418 -13.162315009296 0.0
0.301622045460785 -12.535566542854 0.0
4.67527554271485E-05 -13.1618935146492 0.0
2.71938887795309E-05 -13.7968378914317 0.0
0.30975990552788 -13.7972124078803 0.0
0.30583554281418 -13.162315009296 0.0
2.71938887795309E-05 -13.7968378914317 0.0
-2.74423407151669E-05 -14.4393954513565 0.0
0.313378873474113 -14.4397112744746 0.0
0.30975990552788 -13.7972124078803 0.0
-2.74423407151669E-05 -14.4393954513565 0.0
-0.000143924294732201 -15.0890234399476 0.0
0.316666502121887 -15.0892638183018 0.0
0.313378873474113 -14.4397112744746 0.0
-0.000143924294732201 -15.0890234399476 0.0
-0.000362396729231107 -15.7451810201646 0.0
0.31958338782212 -15.7453233881205 0.0
0.316666502121887 -15.0892638183018 0.0
-0.000362396729231107 -15.7451810201646 0.0
-0.000739775390329656 -16.4073316598951 0.0
0.322072515405414 -16.4073478768429 0.0
0.31958338782212 -15.7453233881205 0.0
-0.000739775390329656 -16.4073316598951 0.0
-0.0013515062360599 -17.0749476066342 0.0
0.324055701879017 -17.0748065700629 0.0
0.322072515405414 -16.4073478768429 0.0
-0.0013515062360599 -17.0749476066342 0.0
-0.00228846884430345 -17.7475172299478 0.0
0.325432993956894 -17.7471924216106 0.0
0.324055701879017 -17.0748065700629 0.0
-0.00228846884430345 -17.7475172299478 0.0
-0.00364257030207915 -18.4245544259139 0.0
0.326090487596603 -18.4240411882405 0.0
0.325432993956894 -17.7471924216106 0.0
-0.00364257030207915 -18.4245544259139 0.0
-0.00546916648418921 -19.1056029539547 0.0
0.325929013584071 -19.1049539660154 0.0
0.326090487596603 -18.4240411882405 0.0
-0.00546916648418921 -19.1056029539547 0.0
-0.00770908546762672 -19.790211039964 0.0
0.324938676817134 -19.7896012977965 0.0
0.325929013584071 -19.1049539660154 0.0
-0.00770908546762672 -19.790211039964 0.0
-0.0100605845060729 -20.4778162808216 0.0
0.323352437369905 -20.4776391053443 0.0
0.324938676817134 -19.7896012977965 0.0
-0.0100605845060729 -20.4778162808216 0.0
-0.0118427945163043 -21.1674383881537 0.0
0.321871109704984 -21.1683846710706 0.0
0.323352437369905 -20.4776391053443 0.0
-0.0118427945163043 -21.1674383881537 0.0
-0.0120150225707367 -21.8570945260847 0.0
0.321783769831418 -21.8600568668163 0.0
0.321871109704984 -21.1683846710706 0.0
-0.0120150225707367 -21.8570945260847 0.0
-0.00963795128136558 -22.5430902711153 0.0
0.324532253596824 -22.5486427847038 0.0
0.321783769831418 -21.8600568668163 0.0
-0.00963795128136558 -22.5430902711153 0.0
-0.00485424787525046 -23.2199208918938 0.0
0.330368191664833 -23.2274163818689 0.0
0.324532253596824 -22.5486427847038 0.0
0 0 0.0
0.010446938883507 -0.00155148292588625 0.0
0.0209584481263534 -0.00331138822009432 0.0
0 0 0.0
0.010446938883507 -0.00155148292588625 0.0
0.0222900850714617 -0.0431594282320034 0.0
0.0447484602116731 -0.046284275544439 0.0
0.0209584481263534 -0.00331138822009432 0.0
0.0222900850714617 -0.0431594282320034 0.0
0.0349536501698906 -0.117994218559788 0.0
0.070151261471487 -0.121858084057352 0.0
0.0447484602116731 -0.046284275544439 0.0
0.0349536501698906 -0.117994218559788 0.0
0.0478290997104106 -0.221466187214985 0.0
0.0959217838727041 -0.225572308177456 0.0
0.070151261471487 -0.121858084057352 0.0
0.0478290997104106 -0.221466187214985 0.0
0.0605242234197185 -0.350953375632326 0.0
0.121293341889632 -0.35503651574196 0.0
0.0959217838727041 -0.225572308177456 0.0
0.0605242234197185 -0.350953375632326 0.0
0.0728768225305484 -0.505059203474128 0.0
0.145969519978584 -0.50902350118446 0.0
0.121293341889632 -0.35503651574196 0.0
0.0728768225305484 -0.505059203474128 0.0
0.084860826924752 -0.682984549876877 0.0
0.169914156284568 -0.686815795916662 0.0
0.145969519978584 -0.50902350118446 0.0
0.084860826924752 -0.682984549876877 0.0
0.0965000902592105 -0.884160292391306 0.0
0.193178345339598 -0.887870061030985 0.0
0.169914156284568 -0.686815795916662 0.0
0.0965000902592105 -0.884160292391306 0.0
0.107823844127775 -1.10807952323132 0.0
0.215818363803475 -1.11168157418165 0.0
0.193178345339598 -0.887870061030985 0.0
0.107823844127775 -1.10807952323132 0.0
0.118852934196523 -1.35423755887325 0.0
0.237873052548003 -1.35774157398506 0.0
0.215818363803475 -1.11168157418165 0.0
0.118852934196523 -1.35423755887325 0.0
0.129599424817251 -1.62211758803512 0.0
0.259364571389806 -1.62552917197164 0.0
0.237873052548003 -1.35774157398506 0.0
0.129599424817251 -1.62211758803512 0.0
0.140069477569001 -1.91119139693218 0.0
0.280304143838517 -1.91451342838214 0.0
0.259364571389806 -1.62552917197164 0.0
0.140069477569001 -1.91119139693218 0.0
0.150265938767489 -2.22092321047257 0.0
0.300696916660623 -2.2241570296154 0.0
0.280304143838517 -1.91451342838214 0.0
0.150265938767489 -2.22092321047257 0.0
0.160189993412149 -2.55077298315291 0.0
0.320545015247065 -2.55391915388142 0.0
0.300696916660623 -2.2241570296154 0.0
0.160189993412149 -2.55077298315291 0.0
0.169842071593292 -2.90019850769797 0.0
0.339849202031283 -2.903257238185 0.0
0.320545015247065 -2.55391915388142 0.0
0.169842071593292 -2.90019850769797 0.0
0.179222294811718 -3.26865658211293 0.0
0.35860968696913 -3.27162793368393 0.0
0.339849202031283 -2.903257238185 0.0
0.179222294811718 -3.26865658211293 0.0
0.188330675783063 -3.65560359142842 0.0
0.376826487641691 -3.65848757310363 0.0
0.35860968696913 -3.27162793368393 0.0
0.188330675783063 -3.65560359142842 0.0
0.197167199127353 -4.06049577156925 0.0
0.394499572844975 -4.06329237887583 0.0
0.376826487641691 -3.65848757310363 0.0
0.197167199127353 -4.06049577156925 0.0
0.205731850020681 -4.48278931725222 0.0
0.411628911956141 -4.48549854650444 0.0
0.394499572844975 -4.06329237887583 0.0
0.205731850020681 -4.48278931725222 0.0
0.21402462299553 -4.92194042033889 0.0
0.428214488145691 -4.92456227346967 0.0
0.411628911956141 -4.48549854650444 0.0
0.21402462299553 -4.92194042033889 0.0
0.22204552506215 -5.37740528042638 0.0
0.444256300623972 -5.379939767037 0.0
0.428214488145691 -4.92456227346967 0.0
0.22204552506215 -5.37740528042638 0.0
0.229794578882696 -5.84864010599138 0.0
0.459754365769155 -5.85108724524309 0.0
0.444256300623972 -5.379939767037 0.0
0.229794578882696 -5.84864010599138 0.0
0.237271828092881 -6.33510111314703 0.0
0.474708720469881 -6.33746093626516 0.0
0.459754365769155 -5.85108724524309 0.0
0.237271828092881 -6.33510111314703 0.0
0.244477345330651 -6.83624452408157 0.0
0.489119428450354 -6.83851707730066 0.0
0.474708720469881 -6.33746093626516 0.0
0.244477345330651 -6.83624452408157 0.0
0.251411242638952 -7.35152656512284 0.0
0.502986589213964 -7.35371191216064 0.0
0.489119428450354 -6.83851707730066 0.0
0.251411242638952 -7.35152656512284 0.0
0.258073682831542 -7.88040346335864 0.0
0.516310348258242 -7.88250168554461 0.0
0.502986589213964 -7.35371191216064 0.0
0.258073682831542 -7.88040346335864 0.0
0.264464888556902 -8.42233143999132 0.0
0.529090905633257 -8.42434263069046 0.0
0.516310348258242 -7.88250168554461 0.0
0.264464888556902 -8.42233143999132 0.0
0.270585142592603 -8.97676669773111 0.0
0.541328517152537 -8.97869094542715 0.0
0.529090905633257 -8.42434263069046 0.0
0.270585142592603 -8.97676669773111 0.0
0.276434767683395 -9.54316539838549 0.0
0.553023478007601 -9.54500274946354 0.0
0.541328517152537 -8.97869094542715 0.0
0.276434767683395 -9.54316539838549 0.0
0.28201406621328 -10.1209836253933 0.0
0.564176071479661 -10.1227340130896 0.0
0.553023478007601 -9.54500274946354 0.0
0.28201406621328 -10.1209836253933 0.0
0.287323188329316 -10.7096773246127 0.0
0.574786455118584 -10.7113404447348 0.0
0.564176071479661 -10.1227340130896 0.0
0.287323188329316 -10.7096773246127 0.0
0.292361881101733 -11.3087022158342 0.0
0.584854442476461 -11.3102773230225 0.0
0.574786455118584 -10.7113404447348 0.0
0.292361881101733 -11.3087022158342 0.0
0.297129050710565 -11.9175136686935 0.0
0.594379119886198 -11.9189992601846 0.0
0.584854442476461 -11.3102773230225 0.0
0.297129050710565 -11.9175136686935 0.0
0.301622045460785 -12.535566542854 0.0
0.603358215264762 -12.5369598920853 0.0
0.594379119886198 -11.9189992601846 0.0
0.301622045460785 -12.535566542854 0.0
0.30583554281418 -13.162315009296 0.0
0.61178711123157 -13.1636115131933 0.0
0.603358215264762 -12.5369598920853 0.0
0.30583554281418 -13.162315009296 0.0
0.30975990552788 -13.7972124078803 0.0
0.619657371715331 -13.7984047259482 0.0
0.61178711123157 -13.1636115131933 0.0
0.30975990552788 -13.7972124078803 0.0
0.313378873474113 -14.4397112744746 0.0
0.626954636323142 -14.4407882754026 0.0
0.619657371715331 -13.7984047259482 0.0
0.313378873474113 -14.4397112744746 0.0
0.316666502121887 -15.0892638183018 0.0
0.63365574076528 -15.0902094276445 0.0
0.626954636323142 -14.4407882754026 0.0
0.316666502121887 -15.0892638183018 0.0
0.31958338782212 -15.7453233881205 0.0
0.639724964107753 -15.7461155773982 0.0
0.63365574076528 -15.0902094276445 0.0
0.31958338782212 -15.7453233881205 0.0
0.322072515405414 -16.4073478768429 0.0
0.64510942535362 -16.407958306325 0.0
0.639724964107753 -15.7461155773982 0.0
0.322072515405414 -16.4073478768429 0.0
0.324055701879017 -17.0748065700629 0.0
0.649733968926664 -17.0752019224105 0.0
0.64510942535362 -16.407958306325 0.0
0.324055701879017 -17.0748065700629 0.0
0.325432993956894 -17.7471924216106 0.0
0.653496732335082 -17.7473395375181 0.0
0.649733968926664 -17.0752019224105 0.0
0.325432993956894 -17.7471924216106 0.0
0.326090487596603 -18.4240411882405 0.0
0.656268931423213 -18.4239204816162 0.0
0.653496732335082 -17.7473395375181 0.0
0.326090487596603 -18.4240411882405 0.0
0.325929013584071 -19.1049539660154 0.0
0.657909246224606 -19.1045909433616 0.0
0.656268931423213 -18.4239204816162 0.0
0.325929013584071 -19.1049539660154 0.0
0.324938676817134 -19.7896012977965 0.0
0.658321659908772 -19.7891353497755 0.0
0.657909246224606 -19.1045909433616 0.0
0.324938676817134 -19.7896012977965 0.0
0.323352437369905 -20.4776391053443 0.0
0.657617200455574 -20.4774518014739 0.0
0.658321659908772 -19.7891353497755 0.0
0.323352437369905 -20.4776391053443 0.0
0.321871109704984 -21.1683846710706 0.0
0.656435592133588 -21.1692643394215 0.0
0.657617200455574 -20.4774518014739 0.0
0.321871109704984 -21.1683846710706 0.0
0.321783769831418 -21.8600568668163 0.0
0.656288059594809 -21.8632111449725 0.0
0.656435592133588 -21.1692643394215 0.0
0.321783769831418 -21.8600568668163 0.0
0.324532253596824 -22.5486427847038 0.0
0.659267972901308 -22.5551192180394 0.0
0.656288059594809 -21.8632111449725 0.0
0.324532253596824 -22.5486427847038 0.0
0.330368191664833 -23.2274163818689 0.0
0.666236936353028 -23.2367128026498 0.0
0.659267972901308 -22.5551192180394 0.0
0 0 0.0
0.0209584481263534 -0.00331138822009432 0.0
0.031607902303147 -0.00634141069883368 0.0
0 0 0.0
0.0209584481263534 -0.00331138822009432 0.0
0.0447484602116731 -0.046284275544439 0.0
0.0675611058583392 -0.0516076117443005 0.0
0.031607902303147 -0.00634141069883368 0.0
0.0447484602116731 -0.046284275544439 0.0
0.070151261471487 -0.121858084057352 0.0
0.105850888631058 -0.128365041420987 0.0
0.0675611058583392 -0.0516076117443005 0.0
0.070151261471487 -0.121858084057352 0.0
0.0959217838727041 -0.225572308177456 0.0
0.144544743237768 -0.232430954662006 0.0
0.105850888631058 -0.128365041420987 0.0
0.0959217838727041 -0.225572308177456 0.0
0.121293341889632 -0.35503651574196 0.0
0.182547527657131 -0.3618305116164 0.0
0.144544743237768 -0.232430954662006 0.0
0.121293341889632 -0.35503651574196 0.0
0.145969519978584 -0.50902350118446 0.0
0.219487605566378 -0.515614651222449 0.0
0.182547527657131 -0.3618305116164 0.0
0.145969519978584 -0.50902350118446 0.0
0.169914156284568 -0.686815795916662 0.0
0.255347824451139 -0.693189240740687 0.0
0.219487605566378 -0.515614651222449 0.0
0.169914156284568 -0.686815795916662 0.0
0.193178345339598 -0.887870061030985 0.0
0.290210309589077 -0.894045991713914 0.0
0.255347824451139 -0.693189240740687 0.0
0.193178345339598 -0.887870061030985 0.0
0.215818363803475 -1.11168157418165 0.0
0.324152960360096 -1.11768140313048 0.0
0.290210309589077 -0.894045991713914 0.0
0.215818363803475 -1.11168157418165 0.0
0.237873052548003 -1.35774157398506 0.0
0.357226978652712 -1.3635799441611 0.0
0.324152960360096 -1.11768140313048 0.0
0.237873052548003 -1.35774157398506 0.0
0.259364571389806 -1.62552917197164 0.0
0.389460938902462 -1.63121445933156 0.0
0.357226978652712 -1.3635799441611 0.0
0.259364571389806 -1.62552917197164 0.0
0.280304143838517 -1.91451342838214 0.0
0.420869105937425 -1.92004990103012 0.0
0.389460938902462 -1.63121445933156 0.0
0.280304143838517 -1.91451342838214 0.0
0.300696916660623 -2.2241570296154 0.0
0.451457936940689 -2.22954666113682 0.0
0.420869105937425 -1.92004990103012 0.0
0.300696916660623 -2.2241570296154 0.0
0.320545015247065 -2.55391915388142 0.0
0.481230059485823 -2.55916276848854 0.0
0.451457936940689 -2.22954666113682 0.0
0.320545015247065 -2.55391915388142 0.0
0.339849202031283 -2.903257238185 0.0
0.510186394627923 -2.90835513674618 0.0
0.481230059485823 -2.55916276848854 0.0
0.339849202031283 -2.903257238185 0.0
0.35860968696913 -3.27162793368393 0.0
0.538327182484306 -3.27658020263071 0.0
0.510186394627923 -2.90835513674618 0.0
0.35860968696913 -3.27162793368393 0.0
0.376826487641691 -3.65848757310363 0.0
0.565652431906466 -3.66329422312794 0.0
0.538327182484306 -3.27658020263071 0.0
0.376826487641691 -3.65848757310363 0.0
0.394499572844975 -4.06329237887583 0.0
0.592162096706568 -4.06795340116216 0.0
0.565652431906466 -3.66329422312794 0.0
0.394499572844975 -4.06329237887583 0.0
0.411628911956141 -4.48549854650444 0.0
0.617856134169523 -4.49001393275065 0.0
0.592162096706568 -4.06795340116216 0.0
0.411628911956141 -4.48549854650444 0.0
0.428214488145691 -4.92456227346967 0.0
0.642734518974992 -4.92893202190789 0.0
0.617856134169523 -4.49001393275065 0.0
0.428214488145691 -4.92456227346967 0.0
0.444256300623972 -5.379939767037 0.0
0.66679724372029 -5.38416388416064 0.0
0.642734518974992 -4.92893202190789 0.0
0.444256300623972 -5.379939767037 0.0
0.459754365769155 -5.85108724524309 0.0
0.690044317922423 -5.85516574701505 0.0
0.66679724372029 -5.38416388416064 0.0
0.459754365769155 -5.85108724524309 0.0
0.474708720469881 -6.33746093626516 0.0
0.712475769301604 -6.34139384994621 0.0
0.690044317922423 -5.85516574701505 0.0
0.474708720469881 -6.33746093626516 0.0
0.489119428450354 -6.83851707730066 0.0
0.734091648102863 -6.84230444383381 0.0
0.712475769301604 -6.34139384994621 0.0
0.489119428450354 -6.83851707730066 0.0
0.502986589213964 -7.35371191216064 0.0
0.754892034062768 -7.35735378828268 0.0
0.734091648102863 -6.84230444383381 0.0
0.502986589213964 -7.35371191216064 0.0
0.516310348258242 -7.88250168554461 0.0
0.774877044857212 -7.88599814393039 0.0
0.754892034062768 -7.35735378828268 0.0
0.516310348258242 -7.88250168554461 0.0
0.529090905633257 -8.42434263069046 0.0
0.794046843685418 -8.42769375513357 0.0
0.774877044857212 -7.88599814393039 0.0
0.529090905633257 -8.42434263069046 0.0
0.541328517152537 -8.97869094542715 0.0
0.812401641523998 -8.98189681606155 0.0
0.794046843685418 -8.42769375513357 0.0
0.541328517152537 -8.97869094542715 0.0
0.553023478007601 -9.54500274946354 0.0
0.82994168601581 -9.54806341010156 0.0
0.812401641523998 -8.98189681606155 0.0
0.553023478007601 -9.54500274946354 0.0
0.564176071479661 -10.1227340130896 0.0
0.84666722337154 -10.1256494087092 0.0
0.82994168601581 -9.54806341010156 0.0
0.564176071479661 -10.1227340130896 0.0
0.574786455118584 -10.7113404447348 0.0
0.862578411422683 -10.7141103119454 0.0
0.84666722337154 -10.1256494087092 0.0
0.574786455118584 -10.7113404447348 0.0
0.584854442476461 -11.3102773230225 0.0
0.877675150453102 -11.3129010102084 0.0
0.862578411422683 -10.7141103119454 0.0
0.584854442476461 -11.3102773230225 0.0
0.594379119886198 -11.9189992601846 0.0
0.891956783194842 -11.9214754477416 0.0
0.877675150453102 -11.3129010102084 0.0
0.594379119886198 -11.9189992601846 0.0
0.603358215264762 -12.5369598920853 0.0
0.905421596294068 -12.5392861783277 0.0
0.891956783194842 -11.9214754477416 0.0
0.603358215264762 -12.5369598920853 0.0
0.61178711123157 -13.1636115131933 0.0
0.918066033014791 -13.1657838309604 0.0
0.905421596294068 -12.5392861783277 0.0
0.61178711123157 -13.1636115131933 0.0
0.619657371715331 -13.7984047259482 0.0
0.929883501742906 -13.8004165631059 0.0
0.918066033014791 -13.1657838309604 0.0
0.619657371715331 -13.7984047259482 0.0
0.626954636323142 -14.4407882754026 0.0
0.9408626374636 -14.4426296959517 0.0
0.929883501742906 -13.8004165631059 0.0
0.626954636323142 -14.4407882754026 0.0
0.63365574076528 -15.0902094276445 0.0
0.950984843066006 -15.0918659385108 0.0
0.9408626374636 -14.4426296959517 0.0
0.63365574076528 -15.0902094276445 0.0
0.639724964107753 -15.7461155773982 0.0
0.960220899707647 -15.7475669765131 0.0
0.950984843066006 -15.0918659385108 0.0
0.639724964107753 -15.7461155773982 0.0
0.64510942535362 -16.407958306325 0.0
0.968526392621776 -16.4091778153357 0.0
0.960220899707647 -15.7475669765131 0.0
0.64510942535362 -16.407958306325 0.0
0.649733968926664 -17.0752019224105 0.0
0.975835671552155 -17.0761562526476 0.0
0.968526392621776 -16.4091778153357 0.0
0.649733968926664 -17.0752019224105 0.0
0.653496732335082 -17.7473395375181 0.0
0.982054266712356 -17.7479913516549 0.0
0.975835671552155 -17.0761562526476 0.0
0.653496732335082 -17.7473395375181 0.0
0.656268931423213 -18.4239204816162 0.0
0.987050833980418 -18.4242367402357 0.0
0.982054266712356 -17.7479913516549 0.0
0.656268931423213 -18.4239204816162 0.0
0.657909246224606 -19.1045909433616 0.0
0.990654219408267 -19.1045663070758 0.0
0.987050833980418 -18.4242367402357 0.0
0.657909246224606 -19.1045909433616 0.0
0.658321659908772 -19.7891353497755 0.0
0.992679850144399 -19.7888550811898 0.0
0.990654219408267 -19.1045663070758 0.0
0.658321659908772 -19.7891353497755 0.0
0.657617200455574 -20.4774518014739 0.0
0.993065596725279 -20.4772428239201 0.0
0.992679850144399 -19.7888550811898 0.0
0.657617200455574 -20.4774518014739 0.0
0.656435592133588 -21.1692643394215 0.0
0.99226769509569 -21.1699656251297 0.0
0.993065596725279 -20.4772428239201 0.0
0.656435592133588 -21.1692643394215 0.0
0.656288059594809 -21.8632111449725 0.0
0.991917353281346 -21.8663857793324 0.0
0.99226769509569 -21.1699656251297 0.0
0.656288059594809 -21.8632111449725 0.0
0.659267972901308 -22.5551192180394 0.0
0.994914610038201 -22.5625091302033 0.0
0.991917353281346 -21.8663857793324 0.0
0.659267972901308 -22.5551192180394 0.0
0.666236936353028 -23.2367128026498 0.0
1.00309638439616 -23.2481234434686 0.0
0.994914610038201 -22.5625091302033 0.0
0 0 0.0
0.031607902303147 -0.00634141069883368 0.0
0.0424895324612171 -0.0108030945804725 0.0
0 0 0.0
0.031607902303147 -0.00634141069883368 0.0
0.0675611058583392 -0.0516076117443005 0.0
0.0909536838530855 -0.059309662575777 0.0
0.0424895324612171 -0.0108030945804725 0.0
0.0675611058583392 -0.0516076117443005 0.0
0.105850888631058 -0.128365041420987 0.0
0.142339018234195 -0.137608809469344 0.0
0.0909536838530855 -0.059309662575777 0.0
0.105850888631058 -0.128365041420987 0.0
0.144544743237768 -0.232430954662006 0.0
0.19396788369132 -0.242055412712813 0.0
0.142339018234195 -0.137608809469344 0.0
0.144544743237768 -0.232430954662006 0.0
0.182547527657131 -0.3618305116164 0.0
0.244515034803134 -0.371314285757639 0.0
0.19396788369132 -0.242055412712813 0.0
0.182547527657131 -0.3618305116164 0.0
0.219487605566378 -0.515614651222449 0.0
0.293627283788851 -0.524808786868866 0.0
0.244515034803134 -0.371314285757639 0.0
0.219487605566378 -0.515614651222449 0.0
0.255347824451139 -0.693189240740687 0.0
0.341340707914945 -0.702088408501134 0.0
0.293627283788851 -0.524808786868866 0.0
0.255347824451139 -0.693189240740687 0.0
0.290210309589077 -0.894045991713914 0.0
0.387766691366566 -0.902678760743656 0.0
0.341340707914945 -0.702088408501134 0.0
0.290210309589077 -0.894045991713914 0.0
0.324152960360096 -1.11768140313048 0.0
0.432994718494428 -1.12607432844731 0.0
0.387766691366566 -0.902678760743656 0.0
0.324152960360096 -1.11768140313048 0.0
0.357226978652712 -1.3635799441611 0.0
0.477080337020795 -1.37175054644283 0.0
0.432994718494428 -1.12607432844731 0.0
0.357226978652712 -1.3635799441611 0.0
0.389460938902462 -1.63121445933156 0.0
0.520053648901579 -1.63917258649749 0.0
0.477080337020795 -1.37175054644283 0.0
0.389460938902462 -1.63121445933156 0.0
0.420869105937425 -1.92004990103012 0.0
0.56192935690918 -1.92780051195849 0.0
0.520053648901579 -1.63917258649749 0.0
0.420869105937425 -1.92004990103012 0.0
0.451457936940689 -2.22954666113682 0.0
0.602713990855498 -2.23709202602112 0.0
0.56192935690918 -1.92780051195849 0.0
0.451457936940689 -2.22954666113682 0.0
0.481230059485823 -2.55916276848854 0.0
0.642410144734073 -2.56650382401904 0.0
0.602713990855498 -2.23709202602112 0.0
0.481230059485823 -2.55916276848854 0.0
0.510186394627923 -2.90835513674618 0.0
0.681018693322026 -2.91549221880582 0.0
0.642410144734073 -2.56650382401904 0.0
0.510186394627923 -2.90835513674618 0.0
0.538327182484306 -3.27658020263071 0.0
0.718539842064599 -3.28351340381311 0.0
0.681018693322026 -2.91549221880582 0.0
0.538327182484306 -3.27658020263071 0.0
0.565652431906466 -3.66329422312794 0.0
0.754973578762587 -3.67002355167557 0.0
0.718539842064599 -3.28351340381311 0.0
0.565652431906466 -3.66329422312794 0.0
0.592162096706568 -4.06795340116216 0.0
0.79031984574821 -4.07447884441802 0.0
0.754973578762587 -3.67002355167557 0.0
0.592162096706568 -4.06795340116216 0.0
0.617856134169523 -4.49001393275065 0.0
0.824578594132266 -4.49633547908914 0.0
0.79031984574821 -4.07447884441802 0.0
0.617856134169523 -4.49001393275065 0.0
0.642734518974992 -4.92893202190789 0.0
0.857749794492937 -4.93504966673882 0.0
0.824578594132266 -4.49633547908914 0.0
0.642734518974992 -4.92893202190789 0.0
0.66679724372029 -5.38416388416064 0.0
0.889833435055396 -5.39007763106773 0.0
0.857749794492937 -4.93504966673882 0.0
0.66679724372029 -5.38416388416064 0.0
0.690044317922423 -5.85516574701505 0.0
0.920829518768363 -5.86087560825923 0.0
0.889833435055396 -5.39007763106773 0.0
0.690044317922423 -5.85516574701505 0.0
0.712475769301604 -6.34139384994621 0.0
0.950738062668431 -6.34689984759672 0.0
0.920829518768363 -5.86087560825923 0.0
0.712475769301604 -6.34139384994621 0.0
0.734091648102863 -6.84230444383381 0.0
0.979559100038617 -6.84760661151666 0.0
0.950738062668431 -6.34689984759672 0.0
0.734091648102863 -6.84230444383381 0.0
0.754892034062768 -7.35735378828268 0.0
1.00729268493144 -7.36245217283128 0.0
0.979559100038617 -6.84760661151666 0.0
0.754892034062768 -7.35735378828268 0.0
0.774877044857212 -7.88599814393039 0.0
1.03393889815974 -7.89089280550795 0.0
1.00729268493144 -7.36245217283128 0.0
0.774877044857212 -7.88599814393039 0.0
0.794046843685418 -8.42769375513357 0.0
1.05949785316004 -8.43238476334224 0.0
1.03393889815974 -7.89089280550795 0.0
0.794046843685418 -8.42769375513357 0.0
0.812401641523998 -8.98189681606155 0.0
1.0839696987932 -8.98638423792779 0.0
1.05949785316004 -8.43238476334224 0.0
0.812401641523998 -8.98189681606155 0.0
0.82994168601581 -9.54806341010156 0.0
1.10735461381453 -9.55234728343465 0.0
1.0839696987932 -8.98638423792779 0.0
0.82994168601581 -9.54806341010156 0.0
0.84666722337154 -10.1256494087092 0.0
1.12965278403072 -10.1297296910228 0.0
1.10735461381453 -9.55234728343465 0.0
0.84666722337154 -10.1256494087092 0.0
0.862578411422683 -10.7141103119454 0.0
1.15086434762178 -10.7179867908593 0.0
1.12965278403072 -10.1297296910228 0.0
0.862578411422683 -10.7141103119454 0.0
0.877675150453102 -11.3129010102084 0.0
1.1709892862691 -11.3165731561784 0.0
1.15086434762178 -10.7179867908593 0.0
0.877675150453102 -11.3129010102084 0.0
0.891956783194842 -11.9214754477416 0.0
1.19002722913968 -11.9249421846393 0.0
1.1709892862691 -11.3165731561784 0.0
0.891956783194842 -11.9214754477416 0.0
0.905421596294068 -12.5392861783277 0.0
1.20797712297549 -12.5425455428971 0.0
1.19002722913968 -11.9249421846393 0.0
0.905421596294068 -12.5392861783277 0.0
0.918066033014791 -13.1657838309604 0.0
1.22483670387901 -13.1688324902878 0.0
1.20797712297549 -12.5425455428971 0.0
0.918066033014791 -13.1657838309604 0.0
0.929883501742906 -13.8004165631059 0.0
1.24060168328347 -13.8032491624429 0.0
1.22483670387901 -13.1688324902878 0.0
0.929883501742906 -13.8004165631059 0.0
0.9408626374636 -14.4426296959517 0.0
1.25526452792236 -14.4452380202912 0.0
1.24060168328347 -13.8032491624429 0.0
0.9408626374636 -14.4426296959517 0.0
0.950984843066006 -15.0918659385108 0.0
1.26881266072838 -15.0942378938646 0.0
1.25526452792236 -14.4452380202912 0.0
0.950984843066006 -15.0918659385108 0.0
0.960220899707647 -15.7475669765131 0.0
1.28122581602023 -15.7496854336616 0.0
1.26881266072838 -15.0942378938646 0.0
0.960220899707647 -15.7475669765131 0.0
0.968526392621776 -16.4091778153357 0.0
1.29247210303365 -16.4110194294686 0.0
1.28122581602023 -15.7496854336616 0.0
0.968526392621776 -16.4091778153357 0.0
0.975835671552155 -17.0761562526476 0.0
1.30250203753869 -17.0776905153656 0.0
1.29247210303365 -16.4110194294686 0.0
0.975835671552155 -17.0761562526476 0.0
0.982054266712356 -17.7479913516549 0.0
1.31123929972068 -17.7491805839133 0.0
1.30250203753869 -17.0776905153656 0.0
0.982054266712356 -17.7479913516549 0.0
0.987050833980418 -18.4242367402357 0.0
1.31856684727197 -18.4250391689259 0.0
1.31123929972068 -17.7491805839133 0.0
0.987050833980418 -18.4242367402357 0.0
0.990654219408267 -19.1045663070758 0.0
1.32430828556157 -19.1049486050861 0.0
1.31856684727197 -18.4250391689259 0.0
0.990654219408267 -19.1045663070758 0.0
0.992679850144399 -19.7888550811898 0.0
1.32821380482614 -19.7888371106925 0.0
1.32430828556157 -19.1049486050861 0.0
0.992679850144399 -19.7888550811898 0.0
0.993065596725279 -20.4772428239201 0.0
1.33002225347133 -20.477046058345 0.0
1.32821380482614 -19.7888371106925 0.0
0.993065596725279 -20.4772428239201 0.0
0.99226769509569 -21.1699656251297 0.0
1.32984998679811 -21.1703877511073 0.0
1.33002225347133 -20.477046058345 0.0
0.99226769509569 -21.1699656251297 0.0
0.991917353281346 -21.8663857793324 0.0
1.32921453983474 -21.8693349491578 0.0
1.32984998679811 -21.1703877511073 0.0
0.991917353281346 -21.8663857793324 0.0
0.994914610038201 -22.5625091302033 0.0
1.33192218648309 -22.5707285052131 0.0
1.32921453983474 -21.8693349491578 0.0
0.994914610038201 -22.5625091302033 0.0
1.00309638439616 -23.2481234434686 0.0
1.34139389121389 -23.2620923349293 0.0
1.33192218648309 -22.5707285052131 0.0
0 0 0.0
0.0424895324612171 -0.0108030945804725 0.0
0.0537391877327216 -0.0169608705698019 0.0
0 0 0.0
0.0424895324612171 -0.0108030945804725 0.0
0.0909536838530855 -0.059309662575777 0.0
0.115223852972103 -0.0696557660105166 0.0
0.0537391877327216 -0.0169608705698019 0.0
0.0909536838530855 -0.059309662575777 0.0
0.142339018234195 -0.137608809469344 0.0
0.179943954323168 -0.149701754610226 0.0
0.115223852972103 -0.0696557660105166 0.0
0.142339018234195 -0.137608809469344 0.0
0.19396788369132 -0.242055412712813 0.0
0.24445664441614 -0.254444375119608 0.0
0.179943954323168 -0.149701754610226 0.0
0.19396788369132 -0.242055412712813 0.0
0.244515034803134 -0.371314285757639 0.0
0.307400058057285 -0.383451491558276 0.0
0.24445664441614 -0.254444375119608 0.0
0.244515034803134 -0.371314285757639 0.0
0.293627283788851 -0.524808786868866 0.0
0.368564072539652 -0.536574095856351 0.0
0.307400058057285 -0.383451491558276 0.0
0.293627283788851 -0.524808786868866 0.0
0.341340707914945 -0.702088408501134 0.0
0.42805945300252 -0.713493421441531 0.0
0.368564072539652 -0.536574095856351 0.0
0.341340707914945 -0.702088408501134 0.0
0.387766691366566 -0.902678760743656 0.0
0.486011918934287 -0.91375759272637 0.0
0.42805945300252 -0.713493421441531 0.0
0.387766691366566 -0.902678760743656 0.0
0.432994718494428 -1.12607432844731 0.0
0.542507790490421 -1.13685509655851 0.0
0.486011918934287 -0.91375759272637 0.0
0.432994718494428 -1.12607432844731 0.0
0.477080337020795 -1.37175054644283 0.0
0.597597538942862 -1.38225106706758 0.0
0.542507790490421 -1.13685509655851 0.0
0.477080337020795 -1.37175054644283 0.0
0.520053648901579 -1.63917258649749 0.0
0.651307380232907 -1.6494026416106 0.0
0.597597538942862 -1.38225106706758 0.0
0.520053648901579 -1.63917258649749 0.0
0.56192935690918 -1.92780051195849 0.0
0.703649764588548 -1.93776495895193 0.0
0.651307380232907 -1.6494026416106 0.0
0.56192935690918 -1.92780051195849 0.0
0.602713990855498 -2.23709202602112 0.0
0.754630055784906 -2.24679305644021 0.0
0.703649764588548 -1.93776495895193 0.0
0.602713990855498 -2.23709202602112 0.0
0.642410144734073 -2.56650382401904 0.0
0.804250305506282 -2.57594232766976 0.0
0.754630055784906 -2.24679305644021 0.0
0.642410144734073 -2.56650382401904 0.0
0.681018693322026 -2.91549221880582 0.0
0.852511159566475 -2.92466850642953 0.0
0.804250305506282 -2.57594232766976 0.0
0.681018693322026 -2.91549221880582 0.0
0.718539842064599 -3.28351340381311 0.0
0.899412738639437 -3.29242755582379 0.0
0.852511159566475 -2.92466850642953 0.0
0.718539842064599 -3.28351340381311 0.0
0.754973578762587 -3.67002355167557 0.0
0.944955005402346 -3.67867557081389 0.0
0.899412738639437 -3.29242755582379 0.0
0.754973578762587 -3.67002355167557 0.0
0.79031984574821 -4.07447884441802 0.0
0.989137898461184 -4.08286871556686 0.0
0.944955005402346 -3.67867557081389 0.0
0.79031984574821 -4.07447884441802 0.0
0.824578594132266 -4.49633547908914 0.0
1.03196137074319 -4.50446318918961 0.0
0.989137898461184 -4.08286871556686 0.0
0.824578594132266 -4.49633547908914 0.0
0.857749794492937 -4.93504966673882 0.0
1.07342539418399 -4.94291520966937 0.0
1.03196137074319 -4.50446318918961 0.0
0.857749794492937 -4.93504966673882 0.0
0.889833435055396 -5.39007763106773 0.0
1.113529955611 -5.39768100804103 0.0
1.07342539418399 -4.94291520966937 0.0
0.889833435055396 -5.39007763106773 0.0
0.920829518768363 -5.86087560825923 0.0
1.1522750524667 -5.86821682768805 0.0
1.113529955611 -5.39768100804103 0.0
0.920829518768363 -5.86087560825923 0.0
0.950738062668431 -6.34689984759672 0.0
1.18966069060636 -6.35397892556497 0.0
1.1522750524667 -5.86821682768805 0.0
0.950738062668431 -6.34689984759672 0.0
0.979559100038617 -6.84760661151666 0.0
1.22568688425597 -6.85442357284246 0.0
1.18966069060636 -6.35397892556497 0.0
0.979559100038617 -6.84760661151666 0.0
1.00729268493144 -7.36245217283128 0.0
1.26035365766432 -7.36900705213804 0.0
1.22568688425597 -6.85442357284246 0.0
1.00729268493144 -7.36245217283128 0.0
1.03393889815974 -7.89089280550795 0.0
1.29366104785677 -7.89718564719156 0.0
1.26035365766432 -7.36900705213804 0.0
1.03393889815974 -7.89089280550795 0.0
1.05949785316004 -8.43238476334224 0.0
1.32560910770182 -8.43841561855528 0.0
1.29366104785677 -7.89718564719156 0.0
1.05949785316004 -8.43238476334224 0.0
1.0839696987932 -8.98638423792779 0.0
1.35619790800538 -8.99215315551276 0.0
1.32560910770182 -8.43841561855528 0.0
1.0839696987932 -8.98638423792779 0.0
1.10735461381453 -9.55234728343465 0.0
1.38542753639146 -9.55785428998706 0.0
1.35619790800538 -8.99215315551276 0.0
1.10735461381453 -9.55234728343465 0.0
1.12965278403072 -10.1297296910228 0.0
1.41329808915238 -10.1349747528454 0.0
1.38542753639146 -9.55785428998706 0.0
1.12965278403072 -10.1297296910228 0.0
1.15086434762178 -10.7179867908593 0.0
1.43980964986114 -10.722969747454 0.0
1.41329808915238 -10.1349747528454 0.0
1.15086434762178 -10.7179867908593 0.0
1.1709892862691 -11.3165731561784 0.0
1.46496224510212 -11.3212936112299 0.0
1.43980964986114 -10.722969747454 0.0
1.1709892862691 -11.3165731561784 0.0
1.19002722913968 -11.9249421846393 0.0
1.48875576287637 -11.9293993365278 0.0
1.46496224510212 -11.3212936112299 0.0
1.19002722913968 -11.9249421846393 0.0
1.20797712297549 -12.5425455428971 0.0
1.51118981253095 -12.5467379332931 0.0
1.48875576287637 -11.9293993365278 0.0
1.20797712297549 -12.5425455428971 0.0
1.22483670387901 -13.1688324902878 0.0
1.53226349522672 -13.1727576472604 0.0
1.51118981253095 -12.5467379332931 0.0
1.22483670387901 -13.1688324902878 0.0
1.24060168328347 -13.8032491624429 0.0
1.55197503806213 -13.8069031145663 0.0
1.53226349522672 -13.1727576472604 0.0
1.24060168328347 -13.8032491624429 0.0
1.25526452792236 -14.4452380202912 0.0
1.5703212158861 -14.4486146607823 0.0
1.55197503806213 -13.8069031145663 0.0
1.25526452792236 -14.4452380202912 0.0
1.26881266072838 -15.0942378938646 0.0
1.5872964272224 -15.0973281759148 0.0
1.5703212158861 -14.4486146607823 0.0
1.26881266072838 -15.0942378938646 0.0
1.28122581602023 -15.7496854336616 0.0
1.60289116984619 -15.7524763779204 0.0
1.5872964272224 -15.0973281759148 0.0
1.28122581602023 -15.7496854336616 0.0
1.29247210303365 -16.4110194294686 0.0
1.61708942110523 -16.4134929030676 0.0
1.60289116984619 -15.7524763779204 0.0
1.29247210303365 -16.4110194294686 0.0
1.30250203753869 -17.0776905153656 0.0
1.6298639196059 -17.0798217498172 0.0
1.61708942110523 -16.4134929030676 0.0
1.30250203753869 -17.0776905153656 0.0
1.31123929972068 -17.7491805839133 0.0
1.64116753339368 -17.7509363845034 0.0
1.6298639196059 -17.0798217498172 0.0
1.31123929972068 -17.7491805839133 0.0
1.31856684727197 -18.4250391689259 0.0
1.65091699906221 -18.4263765318163 0.0
1.64116753339368 -17.7509363845034 0.0
1.31856684727197 -18.4250391689259 0.0
1.32430828556157 -19.1049486050861 0.0
1.65896487800138 -19.1058169271411 0.0
1.65091699906221 -18.4263765318163 0.0
1.32430828556157 -19.1049486050861 0.0
1.32821380482614 -19.7888371106925 0.0
1.66505234801456 -19.7891960580495 0.0
1.65896487800138 -19.1058169271411 0.0
1.32821380482614 -19.7888371106925 0.0
1.33002225347133 -20.477046058345 0.0
1.66875858288763 -20.4769693514159 0.0
1.66505234801456 -19.7891960580495 0.0
1.33002225347133 -20.477046058345 0.0
1.32984998679811 -21.1703877511073 0.0
1.66971807454079 -21.170486590849 0.0
1.66875858288763 -20.4769693514159 0.0
1.32984998679811 -21.1703877511073 0.0
1.32921453983474 -21.8693349491578 0.0
1.66890843080713 -21.8717347343534 0.0
1.66971807454079 -21.170486590849 0.0
1.32921453983474 -21.8693349491578 0.0
1.33192218648309 -22.5707285052131 0.0
1.67093015346478 -22.5795529899153 0.0
1.66890843080713 -21.8717347343534 0.0
1.33192218648309 -22.5707285052131 0.0
1.34139389121389 -23.2620923349293 0.0
1.68176567909969 -23.2792832152517 0.0
1.67093015346478 -22.5795529899153 0.0
0 0 0.0
0.0537391877327216 -0.0169608705698019 0.0
0.0655763125137373 -0.0252370783442748 0.0
0 0 0.0
0.0537391877327216 -0.0169608705698019 0.0
0.115223852972103 -0.0696557660105166 0.0
0.140794244458228 -0.0830021853729454 0.0
0.0655763125137373 -0.0252370783442748 0.0
0.115223852972103 -0.0696557660105166 0.0
0.179943954323168 -0.149701754610226 0.0
0.21904186787113 -0.164742728154893 0.0
0.140794244458228 -0.0830021853729454 0.0
0.179943954323168 -0.149701754610226 0.0
0.24445664441614 -0.254444375119608 0.0
0.296247340537468 -0.269560914701721 0.0
0.21904186787113 -0.164742728154893 0.0
0.24445664441614 -0.254444375119608 0.0
0.307400058057285 -0.383451491558276 0.0
0.371364403061596 -0.398188852063033 0.0
0.296247340537468 -0.269560914701721 0.0
0.307400058057285 -0.383451491558276 0.0
0.368564072539652 -0.536574095856351 0.0
0.444446947705957 -0.550875179125398 0.0
0.371364403061596 -0.398188852063033 0.0
0.368564072539652 -0.536574095856351 0.0
0.42805945300252 -0.713493421441531 0.0
0.515657077504069 -0.727384304414673 0.0
0.444446947705957 -0.550875179125398 0.0
0.42805945300252 -0.713493421441531 0.0
0.486011918934287 -0.91375759272637 0.0
0.585103629729141 -0.927272217252512 0.0
0.515657077504069 -0.727384304414673 0.0
0.486011918934287 -0.91375759272637 0.0
0.542507790490421 -1.13685509655851 0.0
0.65285341502146 -1.15001897193066 0.0
0.585103629729141 -0.927272217252512 0.0
0.542507790490421 -1.13685509655851 0.0
0.597597538942862 -1.38225106706758 0.0
0.718941841962827 -1.39507950562844 0.0
0.65285341502146 -1.15001897193066 0.0
0.597597538942862 -1.38225106706758 0.0
0.651307380232907 -1.6494026416106 0.0
0.783386436700978 -1.66190388891539 0.0
0.718941841962827 -1.39507950562844 0.0
0.651307380232907 -1.6494026416106 0.0
0.703649764588548 -1.93776495895193 0.0
0.846195114704905 -1.94994302542674 0.0
0.783386436700978 -1.66190388891539 0.0
0.703649764588548 -1.93776495895193 0.0
0.754630055784906 -2.24679305644021 0.0
0.907371120417274 -2.25864972335712 0.0
0.846195114704905 -1.94994302542674 0.0
0.754630055784906 -2.24679305644021 0.0
0.804250305506282 -2.57594232766976 0.0
0.966915605052359 -2.58747830221175 0.0
0.907371120417274 -2.25864972335712 0.0
0.804250305506282 -2.57594232766976 0.0
0.852511159566475 -2.92466850642953 0.0
1.02482887836328 -2.93588402707447 0.0
0.966915605052359 -2.58747830221175 0.0
0.852511159566475 -2.92466850642953 0.0
0.899412738639437 -3.29242755582379 0.0
1.08111095991506 -3.30332267857905 0.0
1.02482887836328 -2.93588402707447 0.0
0.899412738639437 -3.29242755582379 0.0
0.944955005402346 -3.67867557081389 0.0
1.13576179696592 -3.68925029259318 0.0
1.08111095991506 -3.30332267857905 0.0
0.944955005402346 -3.67867557081389 0.0
0.989137898461184 -4.08286871556686 0.0
1.18878133702272 -4.09312302127049 0.0
1.13576179696592 -3.68925029259318 0.0
0.989137898461184 -4.08286871556686 0.0
1.03196137074319 -4.50446318918961 0.0
1.24016954423322 -4.5143970666528 0.0
1.18878133702272 -4.09312302127049 0.0
1.03196137074319 -4.50446318918961 0.0
1.07342539418399 -4.94291520966937 0.0
1.28992639769686 -4.95252865276126 0.0
1.24016954423322 -4.5143970666528 0.0
1.07342539418399 -4.94291520966937 0.0
1.113529955611 -5.39768100804103 0.0
1.33805188608876 -5.40697401638021 0.0
1.28992639769686 -4.95252865276126 0.0
1.113529955611 -5.39768100804103 0.0
1.1522750524667 -5.86821682768805 0.0
1.38454600299333 -5.8771894060387 0.0
1.33805188608876 -5.40697401638021 0.0
1.1522750524667 -5.86821682768805 0.0
1.18966069060636 -6.35397892556497 0.0
1.42940874365959 -6.36263108373568 0.0
1.38454600299333 -5.8771894060387 0.0
1.18966069060636 -6.35397892556497 0.0
1.22568688425597 -6.85442357284246 0.0
1.47264010281645 -6.86275532603375 0.0
1.42940874365959 -6.36263108373568 0.0
1.22568688425597 -6.85442357284246 0.0
1.26035365766432 -7.36900705213804 0.0
1.51424007306699 -7.37701842129158 0.0
1.47264010281645 -6.86275532603375 0.0
1.26035365766432 -7.36900705213804 0.0
1.29366104785677 -7.89718564719156 0.0
1.55420864355167 -7.90487665856522 0.0
1.51424007306699 -7.37701842129158 0.0
1.29366104785677 -7.89718564719156 0.0
1.32560910770182 -8.43841561855528 0.0
1.59254579882401 -8.44578630127751 0.0
1.55420864355167 -7.90487665856522 0.0
1.32560910770182 -8.43841561855528 0.0
1.35619790800538 -8.99215315551276 0.0
1.62925151819766 -8.99920353514332 0.0
1.59254579882401 -8.44578630127751 0.0
1.35619790800538 -8.99215315551276 0.0
1.38542753639146 -9.55785428998706 0.0
1.66432577626213 -9.56458437505122 0.0
1.62925151819766 -8.99920353514332 0.0
1.38542753639146 -9.55785428998706 0.0
1.41329808915238 -10.1349747528454 0.0
1.69776854592466 -10.1413845098711 0.0
1.66432577626213 -9.56458437505122 0.0
1.41329808915238 -10.1349747528454 0.0
1.43980964986114 -10.722969747454 0.0
1.72957980633347 -10.7290590582373 0.0
1.69776854592466 -10.1413845098711 0.0
1.43980964986114 -10.722969747454 0.0
1.46496224510212 -11.3212936112299 0.0
1.75975955947688 -11.3270622039888 0.0
1.72957980633347 -10.7290590582373 0.0
1.46496224510212 -11.3212936112299 0.0
1.48875576287637 -11.9293993365278 0.0
1.78830786113198 -11.9348466805124 0.0
1.75975955947688 -11.3270622039888 0.0
1.48875576287637 -11.9293993365278 0.0
1.51118981253095 -12.5467379332931 0.0
1.81522487381353 -12.551863084664 0.0
1.78830786113198 -11.9348466805124 0.0
1.51118981253095 -12.5467379332931 0.0
1.53226349522672 -13.1727576472604 0.0
1.8405109502356 -13.1775590329289 0.0
1.81522487381353 -12.551863084664 0.0
1.53226349522672 -13.1727576472604 0.0
1.55197503806213 -13.8069031145663 0.0
1.86416675226507 -13.8113782401456 0.0
1.8405109502356 -13.1775590329289 0.0
1.55197503806213 -13.8069031145663 0.0
1.5703212158861 -14.4486146607823 0.0
1.88619339482442 -14.4527597268452 0.0
1.86416675226507 -13.8113782401456 0.0
1.5703212158861 -14.4486146607823 0.0
1.5872964272224 -15.0973281759148 0.0
1.90659255950011 -15.1011375797793 0.0
1.88619339482442 -14.4527597268452 0.0
1.5872964272224 -15.0973281759148 0.0
1.60289116984619 -15.7524763779204 0.0
1.92536641560385 -15.7559420496672 0.0
1.90659255950011 -15.1011375797793 0.0
1.60289116984619 -15.7524763779204 0.0
1.61708942110523 -16.4134929030676 0.0
1.94251693849818 -16.4166033749851 0.0
1.92536641560385 -15.7559420496672 0.0
1.61708942110523 -16.4134929030676 0.0
1.6298639196059 -17.0798217498172 0.0
1.95804372507917 -17.0825606781712 0.0
1.94251693849818 -16.4166033749851 0.0
1.6298639196059 -17.0798217498172 0.0
1.64116753339368 -17.7509363845034 0.0
1.97193822676641 -17.7532802193421 0.0
1.95804372507917 -17.0825606781712 0.0
1.64116753339368 -17.7509363845034 0.0
1.65091699906221 -18.4263765318163 0.0
1.98417072772338 -18.4282901689143 0.0
1.97193822676641 -17.7532802193421 0.0
1.65091699906221 -18.4263765318163 0.0
1.65896487800138 -19.1058169271411 0.0
1.99465968623085 -19.1072487654072 0.0
1.98417072772338 -18.4282901689143 0.0
1.65896487800138 -19.1058169271411 0.0
1.66505234801456 -19.7891960580495 0.0
2.00321645132715 -19.7900739616308 0.0
1.99465968623085 -19.1072487654072 0.0
1.66505234801456 -19.7891960580495 0.0
1.66875858288763 -20.4769693514159 0.0
2.00940731581246 -20.477220051721 0.0
2.00321645132715 -19.7900739616308 0.0
1.66875858288763 -20.4769693514159 0.0
1.66971807454079 -21.170486590849 0.0
2.01239182033241 -21.1703598234132 0.0
2.00940731581246 -20.477220051721 0.0
1.66971807454079 -21.170486590849 0.0
1.66890843080713 -21.8717347343534 0.0
2.01198980119704 -21.8732220360355 0.0
2.01239182033241 -21.1703598234132 0.0
1.66890843080713 -21.8717347343534 0.0
1.67093015346478 -22.5795529899153 0.0
2.01293410258755 -22.5884950189057 0.0
2.01198980119704 -21.8732220360355 0.0
1.67093015346478 -22.5795529899153 0.0
1.68176567909969 -23.2792832152517 0.0
2.02522158861539 -23.3007248497599 0.0
2.01293410258755 -22.5884950189057 0.0
0 0 0.0
0.0655763125137373 -0.0252370783442748 0.0
0.0784016326431797 -0.0363186153207104 0.0
0 0 0.0
0.0655763125137373 -0.0252370783442748 0.0
0.140794244458228 -0.0830021853729454 0.0
0.168305565516228 -0.0997790644066132 0.0
0.0784016326431797 -0.0363186153207104 0.0
0.140794244458228 -0.0830021853729454 0.0
0.21904186787113 -0.164742728154893 0.0
0.260030357749489 -0.182750522637758 0.0
0.168305565516228 -0.0997790644066132 0.0
0.21904186787113 -0.164742728154893 0.0
0.296247340537468 -0.269560914701721 0.0
0.349489934628236 -0.287311170563116 0.0
0.260030357749489 -0.182750522637758 0.0
0.296247340537468 -0.269560914701721 0.0
0.371364403061596 -0.398188852063033 0.0
0.436508129882283 -0.415464946897721 0.0
0.349489934628236 -0.287311170563116 0.0
0.371364403061596 -0.398188852063033 0.0
0.444446947705957 -0.550875179125398 0.0
0.521398981515561 -0.567680556028901 0.0
0.436508129882283 -0.415464946897721 0.0
0.444446947705957 -0.550875179125398 0.0
0.515657077504069 -0.727384304414673 0.0
0.604272657750249 -0.743744443144446 0.0
0.521398981515561 -0.567680556028901 0.0
0.515657077504069 -0.727384304414673 0.0
0.585103629729141 -0.927272217252512 0.0
0.685193795477066 -0.943215196184339 0.0
0.604272657750249 -0.743744443144446 0.0
0.585103629729141 -0.927272217252512 0.0
0.65285341502146 -1.15001897193066 0.0
0.764190496689958 -1.16556272967549 0.0
0.685193795477066 -0.943215196184339 0.0
0.65285341502146 -1.15001897193066 0.0
0.718941841962827 -1.39507950562844 0.0
0.841275736426273 -1.41023466210439 0.0
0.764190496689958 -1.16556272967549 0.0
0.718941841962827 -1.39507950562844 0.0
0.783386436700978 -1.66190388891539 0.0
0.916454936084158 -1.67667595434332 0.0
0.841275736426273 -1.41023466210439 0.0
0.783386436700978 -1.66190388891539 0.0
0.846195114704905 -1.94994302542674 0.0
0.98973020232833 -1.96433464758159 0.0
0.916454936084158 -1.67667595434332 0.0
0.846195114704905 -1.94994302542674 0.0
0.907371120417274 -2.25864972335712 0.0
1.06110222337314 -2.27266205300365 0.0
0.98973020232833 -1.96433464758159 0.0
0.907371120417274 -2.25864972335712 0.0
0.966915605052359 -2.58747830221175 0.0
1.13057115014897 -2.60111178632881 0.0
1.06110222337314 -2.27266205300365 0.0
0.966915605052359 -2.58747830221175 0.0
1.02482887836328 -2.93588402707447 0.0
1.19813696285923 -2.94913880996859 0.0
1.13057115014897 -2.60111178632881 0.0
1.02482887836328 -2.93588402707447 0.0
1.08111095991506 -3.30332267857905 0.0
1.26379960921672 -3.31619878997277 0.0
1.19813696285923 -2.94913880996859 0.0
1.08111095991506 -3.30332267857905 0.0
1.13576179696592 -3.68925029259318 0.0
1.3275590462443 -3.70174772679559 0.0
1.26379960921672 -3.31619878997277 0.0
1.13576179696592 -3.68925029259318 0.0
1.18878133702272 -4.09312302127049 0.0
1.38941524679178 -4.10524176662382 0.0
1.3275590462443 -3.70174772679559 0.0
1.18878133702272 -4.09312302127049 0.0
1.24016954423322 -4.5143970666528 0.0
1.44936819567441 -4.52613711431662 0.0
1.38941524679178 -4.10524176662382 0.0
1.24016954423322 -4.5143970666528 0.0
1.28992639769686 -4.95252865276126 0.0
1.50741788431832 -4.96388999809264 0.0
1.44936819567441 -4.52613711431662 0.0
1.28992639769686 -4.95252865276126 0.0
1.33805188608876 -5.40697401638021 0.0
1.56356430619834 -5.41795665828044 0.0
1.50741788431832 -4.96388999809264 0.0
1.33805188608876 -5.40697401638021 0.0
1.38454600299333 -5.8771894060387 0.0
1.61780745304019 -5.88779334613384 0.0
1.56356430619834 -5.41795665828044 0.0
1.38454600299333 -5.8771894060387 0.0
1.42940874365959 -6.36263108373568 0.0
1.67014731114516 -6.37285632582553 0.0
1.61780745304019 -5.88779334613384 0.0
1.42940874365959 -6.36263108373568 0.0
1.47264010281645 -6.86275532603375 0.0
1.72058385718487 -6.87260187570894 0.0
1.67014731114516 -6.37285632582553 0.0
1.47264010281645 -6.86275532603375 0.0
1.51424007306699 -7.37701842129158 0.0
1.76911705301072 -7.38648628540381 0.0
1.72058385718487 -6.87260187570894 0.0
1.51424007306699 -7.37701842129158 0.0
1.55420864355167 -7.90487665856522 0.0
1.81574683936049 -7.91396584408472 0.0
1.76911705301072 -7.38648628540381 0.0
1.55420864355167 -7.90487665856522 0.0
1.59254579882401 -8.44578630127751 0.0
1.8604731289165 -8.45449681287461 0.0
1.81574683936049 -7.91396584408472 0.0
1.59254579882401 -8.44578630127751 0.0
1.62925151819766 -8.99920353514332 0.0
1.90329580016912 -9.00753537054705 0.0
1.8604731289165 -8.45449681287461 0.0
1.62925151819766 -8.99920353514332 0.0
1.66432577626213 -9.56458437505122 0.0
1.94421469524796 -9.57253751686117 0.0
1.90329580016912 -9.00753537054705 0.0
1.66432577626213 -9.56458437505122 0.0
1.69776854592466 -10.1413845098711 0.0
1.98322962768254 -10.1489589120573 0.0
1.94421469524796 -9.57253751686117 0.0
1.69776854592466 -10.1413845098711 0.0
1.72957980633347 -10.7290590582373 0.0
2.02034041042056 -10.7362546251303 0.0
1.98322962768254 -10.1489589120573 0.0
1.72957980633347 -10.7290590582373 0.0
1.75975955947688 -11.3270622039888 0.0
2.05554692090427 -11.3338787592746 0.0
2.02034041042056 -10.7362546251303 0.0
1.75975955947688 -11.3270622039888 0.0
1.78830786113198 -11.9348466805124 0.0
2.08884922907377 -11.9412839238009 0.0
2.05554692090427 -11.3338787592746 0.0
1.78830786113198 -11.9348466805124 0.0
1.81522487381353 -12.551863084664 0.0
2.12024782600859 -12.5579205338004 0.0
2.08884922907377 -11.9412839238009 0.0
1.81522487381353 -12.551863084664 0.0
1.8405109502356 -13.1775590329289 0.0
2.149744004873 -13.1832359514166 0.0
2.12024782600859 -12.5579205338004 0.0
1.8405109502356 -13.1775590329289 0.0
1.86416675226507 -13.8113782401456 0.0
2.17734045937345 -13.8166735501465 0.0
2.149744004873 -13.1832359514166 0.0
1.86416675226507 -13.8113782401456 0.0
1.88619339482442 -14.4527597268452 0.0
2.20304217167371 -14.4576719074483 0.0
2.17734045937345 -13.8166735501465 0.0
1.88619339482442 -14.4527597268452 0.0
1.90659255950011 -15.1011375797793 0.0
2.22685764815034 -15.1056645401918 0.0
2.20304217167371 -14.4576719074483 0.0
1.90659255950011 -15.1011375797793 0.0
1.92536641560385 -15.7559420496672 0.0
2.2488004978424 -15.7600809426238 0.0
2.22685764815034 -15.1056645401918 0.0
1.92536641560385 -15.7559420496672 0.0
1.94251693849818 -16.4166033749851 0.0
2.26889118438837 -16.4203502230051 0.0
2.2488004978424 -15.7600809426238 0.0
1.94251693849818 -16.4166033749851 0.0
1.95804372507917 -17.0825606781712 0.0
2.2871583668597 -17.0859095998281 0.0
2.26889118438837 -16.4203502230051 0.0
1.95804372507917 -17.0825606781712 0.0
1.97193822676641 -17.7532802193421 0.0
2.30363847998064 -17.7562213986459 0.0
2.2871583668597 -17.0859095998281 0.0
1.97193822676641 -17.7532802193421 0.0
1.98417072772338 -18.4282901689143 0.0
2.3183697092025 -18.4308063407174 0.0
2.30363847998064 -17.7562213986459 0.0
1.98417072772338 -18.4282901689143 0.0
1.99465968623085 -19.1072487654072 0.0
2.33137474403815 -19.1093041352259 0.0
2.3183697092025 -18.4308063407174 0.0
1.99465968623085 -19.1072487654072 0.0
2.00321645132715 -19.7900739616308 0.0
2.34260144975303 -19.791606172824 0.0
2.33137474403815 -19.1093041352259 0.0
2.00321645132715 -19.7900739616308 0.0
2.00940731581246 -20.477220051721 0.0
2.35183563659072 -20.4780969493571 0.0
2.34260144975303 -19.791606172824 0.0
2.00940731581246 -20.477220051721 0.0
2.01239182033241 -21.1703598234132 0.0
2.3581672901197 -21.1703770222535 0.0
2.35183563659072 -20.4780969493571 0.0
2.01239182033241 -21.1703598234132 0.0
2.01198980119704 -21.8732220360355 0.0
2.35974518408935 -21.8735557352103 0.0
2.3581672901197 -21.1703770222535 0.0
2.01198980119704 -21.8732220360355 0.0
2.01293410258755 -22.5884950189057 0.0
2.35961290388855 -22.5965985099692 0.0
2.35974518408935 -21.8735557352103 0.0
2.01293410258755 -22.5884950189057 0.0
2.02522158861539 -23.3007248497599 0.0
2.37356679569898 -23.3280382657774 0.0
2.35961290388855 -22.5965985099692 0.0
0 0 0.0
0.0784016326431797 -0.0363186153207104 0.0
0.0930743673088378 -0.0513745997681362 0.0
0 0 0.0
0.0784016326431797 -0.0363186153207104 0.0
0.168305565516228 -0.0997790644066132 0.0
0.198770879847432 -0.120379516733241 0.0
0.0930743673088378 -0.0513745997681362 0.0
0.168305565516228 -0.0997790644066132 0.0
0.260030357749489 -0.182750522637758 0.0
0.303185252360406 -0.203537266983967 0.0
0.198770879847432 -0.120379516733241 0.0
0.260030357749489 -0.182750522637758 0.0
0.349489934628236 -0.287311170563116 0.0
0.404138352959694 -0.307555146262337 0.0
0.303185252360406 -0.203537266983967 0.0
0.349489934628236 -0.287311170563116 0.0
0.436508129882283 -0.415464946897721 0.0
0.50288899170478 -0.435238051166145 0.0
0.404138352959694 -0.307555146262337 0.0
0.436508129882283 -0.415464946897721 0.0
0.521398981515561 -0.567680556028901 0.0
0.599514092969688 -0.586966312435248 0.0
0.50288899170478 -0.435238051166145 0.0
0.521398981515561 -0.567680556028901 0.0
0.604272657750249 -0.743744443144446 0.0
0.694036118764664 -0.762566121345203 0.0
0.599514092969688 -0.586966312435248 0.0
0.604272657750249 -0.743744443144446 0.0
0.685193795477066 -0.943215196184339 0.0
0.786430607139739 -0.961583423221474 0.0
0.694036118764664 -0.762566121345203 0.0
0.685193795477066 -0.943215196184339 0.0
0.764190496689958 -1.16556272967549 0.0
0.876676940638059 -1.18348558476773 0.0
0.786430607139739 -0.961583423221474 0.0
0.764190496689958 -1.16556272967549 0.0
0.841275736426273 -1.41023466210439 0.0
0.96476156307808 -1.42771643230161 0.0
0.876676940638059 -1.18348558476773 0.0
0.841275736426273 -1.41023466210439 0.0
0.916454936084158 -1.67667595434332 0.0
1.05067710594663 -1.69371894091779 0.0
0.96476156307808 -1.42771643230161 0.0
0.916454936084158 -1.67667595434332 0.0
0.98973020232833 -1.96433464758159 0.0
1.13441995244908 -1.98093993780237 0.0
1.05067710594663 -1.69371894091779 0.0
0.98973020232833 -1.96433464758159 0.0
1.06110222337314 -2.27266205300365 0.0
1.21598849762588 -2.28883012557425 0.0
1.13441995244908 -1.98093993780237 0.0
1.06110222337314 -2.27266205300365 0.0
1.13057115014897 -2.60111178632881 0.0
1.2953821037031 -2.61684282714534 0.0
1.21598849762588 -2.28883012557425 0.0
1.13057115014897 -2.60111178632881 0.0
1.19813696285923 -2.94913880996859 0.0
1.37260055581999 -2.96443287981874 0.0
1.2953821037031 -2.61684282714534 0.0
1.19813696285923 -2.94913880996859 0.0
1.26379960921672 -3.31619878997277 0.0
1.44764380394977 -3.33105590177156 0.0
1.37260055581999 -2.96443287981874 0.0
1.26379960921672 -3.31619878997277 0.0
1.3275590462443 -3.70174772679559 0.0
1.52051185194299 -3.7161678786165 0.0
1.44764380394977 -3.33105590177156 0.0
1.3275590462443 -3.70174772679559 0.0
1.38941524679178 -4.10524176662382 0.0
1.59120471504202 -4.11922495393563 0.0
1.52051185194299 -3.7161678786165 0.0
1.38941524679178 -4.10524176662382 0.0
1.44936819567441 -4.52613711431662 0.0
1.65972240612733 -4.53968333362403 0.0
1.59120471504202 -4.11922495393563 0.0
1.44936819567441 -4.52613711431662 0.0
1.50741788431832 -4.96388999809264 0.0
1.72606493228751 -4.97699924740097 0.0
1.65972240612733 -4.53968333362403 0.0
1.50741788431832 -4.96388999809264 0.0
1.56356430619834 -5.41795665828044 0.0
1.79023229386067 -5.43062893659427 0.0
1.72606493228751 -4.97699924740097 0.0
1.56356430619834 -5.41795665828044 0.0
1.61780745304019 -5.88779334613384 0.0
1.85222448281862 -5.90002865271416 0.0
1.79023229386067 -5.43062893659427 0.0
1.61780745304019 -5.88779334613384 0.0
1.67014731114516 -6.37285632582553 0.0
1.9120414792353 -6.38465465932169 0.0
1.85222448281862 -5.90002865271416 0.0
1.67014731114516 -6.37285632582553 0.0
1.72058385718487 -6.87260187570894 0.0
1.96968324521685 -6.88396323304709 0.0
1.9120414792353 -6.38465465932169 0.0
1.72058385718487 -6.87260187570894 0.0
1.76911705301072 -7.38648628540381 0.0
2.02514971590386 -7.39741066022906 0.0
1.96968324521685 -6.88396323304709 0.0
1.76911705301072 -7.38648628540381 0.0
1.81574683936049 -7.91396584408472 0.0
2.07844078744993 -7.92445322452901 0.0
2.02514971590386 -7.39741066022906 0.0
1.81574683936049 -7.91396584408472 0.0
1.8604731289165 -8.45449681287461 0.0
2.12955630257173 -8.46454717844139 0.0
2.07844078744993 -7.92445322452901 0.0
1.8604731289165 -8.45449681287461 0.0
1.90329580016912 -9.00753537054705 0.0
2.17849603572246 -9.01714868799539 0.0
2.12955630257173 -8.46454717844139 0.0
1.90329580016912 -9.00753537054705 0.0
1.94421469524796 -9.57253751686117 0.0
2.22525968264699 -9.58171373520271 0.0
2.17849603572246 -9.01714868799539 0.0
1.94421469524796 -9.57253751686117 0.0
1.98322962768254 -10.1489589120573 0.0
2.26984686370192 -10.1576979572585 0.0
2.22525968264699 -9.58171373520271 0.0
1.98322962768254 -10.1489589120573 0.0
2.02034041042056 -10.7362546251303 0.0
2.31225715773929 -10.744556395997 0.0
2.26984686370192 -10.1576979572585 0.0
2.02034041042056 -10.7362546251303 0.0
2.05554692090427 -11.3338787592746 0.0
2.35249019462414 -11.3417431274961 0.0
2.31225715773929 -10.744556395997 0.0
2.05554692090427 -11.3338787592746 0.0
2.08884922907377 -11.9412839238009 0.0
2.39054585073171 -11.9487107434911 0.0
2.35249019462414 -11.3417431274961 0.0
2.08884922907377 -11.9412839238009 0.0
2.12024782600859 -12.5579205338004 0.0
2.4264246140461 -12.5649096693085 0.0
2.39054585073171 -11.9487107434911 0.0
2.12024782600859 -12.5579205338004 0.0
2.149744004873 -13.1832359514166 0.0
2.46012821414613 -13.1897873366733 0.0
2.4264246140461 -12.5649096693085 0.0
2.149744004873 -13.1832359514166 0.0
2.17734045937345 -13.8166735501465 0.0
2.49166064643772 -13.8227872979323 0.0
2.46012821414613 -13.1897873366733 0.0
2.17734045937345 -13.8166735501465 0.0
2.20304217167371 -14.4576719074483 0.0
2.52102975594411 -14.4633484904329 0.0
2.49166064643772 -13.8227872979323 0.0
2.20304217167371 -14.4576719074483 0.0
2.22685764815034 -15.1056645401918 0.0
2.54824957582493 -15.1109050651454 0.0
2.52102975594411 -14.4633484904329 0.0
2.22685764815034 -15.1056645401918 0.0
2.2488004978424 -15.7600809426238 0.0
2.5733436243726 -15.7648875168001 0.0
2.54824957582493 -15.1109050651454 0.0
2.2488004978424 -15.7600809426238 0.0
2.26889118438837 -16.4203502230051 0.0
2.59634932012806 -16.4247263855661 0.0
2.5733436243726 -15.7648875168001 0.0
2.26889118438837 -16.4203502230051 0.0
2.2871583668597 -17.0859095998281 0.0
2.61732353010316 -17.089860567469 0.0
2.59634932012806 -16.4247263855661 0.0
2.2871583668597 -17.0859095998281 0.0
2.30363847998064 -17.7562213986459 0.0
2.63634881343673 -17.7597540315888 0.0
2.61732353010316 -17.089860567469 0.0
2.30363847998064 -17.7562213986459 0.0
2.3183697092025 -18.4308063407174 0.0
2.65353919878933 -18.4339263091554 0.0
2.63634881343673 -17.7597540315888 0.0
2.3183697092025 -18.4308063407174 0.0
2.33137474403815 -19.1093041352259 0.0
2.66903996919334 -19.1120140906916 0.0
2.65353919878933 -18.4339263091554 0.0
2.33137474403815 -19.1093041352259 0.0
2.34260144975303 -19.791606172824 0.0
2.68301775908142 -19.7938728001615 0.0
2.66903996919334 -19.1120140906916 0.0
2.34260144975303 -19.791606172824 0.0
2.35183563659072 -20.4780969493571 0.0
2.69555192210753 -20.4798820293188 0.0
2.68301775908142 -19.7938728001615 0.0
2.35183563659072 -20.4780969493571 0.0
2.3581672901197 -21.1703770222535 0.0
2.70662477725438 -21.1712904546157 0.0
2.69555192210753 -20.4798820293188 0.0
2.3581672901197 -21.1703770222535 0.0
2.35974518408935 -21.8735557352103 0.0
2.71349769233961 -21.8730769977804 0.0
2.70662477725438 -21.1712904546157 0.0
2.35974518408935 -21.8735557352103 0.0
2.35961290388855 -22.5965985099692 0.0
2.71395471958788 -22.6021787446062 0.0
2.71349769233961 -21.8730769977804 0.0
2.35961290388855 -22.5965985099692 0.0
2.37356679569898 -23.3280382657774 0.0
2.7304449524925 -23.3637467854821 0.0
2.71395471958788 -22.6021787446062 0.0
0 0 0.0
0.0930743673088378 -0.0513745997681362 0.0
0.111834636330537 -0.072558275732345 0.0
0 0 0.0
0.0930743673088378 -0.0513745997681362 0.0
0.198770879847432 -0.120379516733241 0.0
0.233850903728008 -0.144640821826553 0.0
0.111834636330537 -0.072558275732345 0.0
0.198770879847432 -0.120379516733241 0.0
0.303185252360406 -0.203537266983967 0.0
0.347878411998082 -0.2265636418197 0.0
0.233850903728008 -0.144640821826553 0.0
0.303185252360406 -0.203537266983967 0.0
0.404138352959694 -0.307555146262337 0.0
0.460117376972905 -0.330272599887975 0.0
0.347878411998082 -0.2265636418197 0.0
0.404138352959694 -0.307555146262337 0.0
0.50288899170478 -0.435238051166145 0.0
0.570493181777694 -0.45746949298318 0.0
0.460117376972905 -0.330272599887975 0.0
0.50288899170478 -0.435238051166145 0.0
0.599514092969688 -0.586966312435248 0.0
0.678874691392495 -0.608734566960195 0.0
0.570493181777694 -0.45746949298318 0.0
0.599514092969688 -0.586966312435248 0.0
0.694036118764664 -0.762566121345203 0.0
0.785072568286737 -0.783851279034584 0.0
0.678874691392495 -0.608734566960195 0.0
0.694036118764664 -0.762566121345203 0.0
0.786430607139739 -0.961583423221474 0.0
0.888962238804133 -0.982379995519498 0.0
0.785072568286737 -0.783851279034584 0.0
0.786430607139739 -0.961583423221474 0.0
0.876676940638059 -1.18348558476773 0.0
0.9904713002333 -1.20378942006758 0.0
0.888962238804133 -0.982379995519498 0.0
0.876676940638059 -1.18348558476773 0.0
0.96476156307808 -1.42771643230161 0.0
1.08956232938824 -1.44752592891296 0.0
0.9904713002333 -1.20378942006758 0.0
0.96476156307808 -1.42771643230161 0.0
1.05067710594663 -1.69371894091779 0.0
1.18621761716761 -1.71303340653096 0.0
1.08956232938824 -1.44752592891296 0.0
1.05067710594663 -1.69371894091779 0.0
1.13441995244908 -1.98093993780237 0.0
1.28042954566674 -1.99975915695056 0.0
1.18621761716761 -1.71303340653096 0.0
1.13441995244908 -1.98093993780237 0.0
1.21598849762588 -2.28883012557425 0.0
1.37219520741716 -2.30715405009281 0.0
1.28042954566674 -1.99975915695056 0.0
1.21598849762588 -2.28883012557425 0.0
1.2953821037031 -2.61684282714534 0.0
1.46151369010713 -2.63467146481202 0.0
1.37219520741716 -2.30715405009281 0.0
1.2953821037031 -2.61684282714534 0.0
1.37260055581999 -2.96443287981874 0.0
1.54838482604268 -2.98176624818919 0.0
1.46151369010713 -2.63467146481202 0.0
1.37260055581999 -2.96443287981874 0.0
1.44764380394977 -3.33105590177156 0.0
1.63280867114886 -3.34789401532231 0.0
1.54838482604268 -2.98176624818919 0.0
1.44764380394977 -3.33105590177156 0.0
1.52051185194299 -3.7161678786165 0.0
1.71478531545188 -3.73251074666521 0.0
1.63280867114886 -3.34789401532231 0.0
1.52051185194299 -3.7161678786165 0.0
1.59120471504202 -4.11922495393563 0.0
1.79431482901622 -4.13507258183186 0.0
1.71478531545188 -3.73251074666521 0.0
1.59120471504202 -4.11922495393563 0.0
1.65972240612733 -4.53968333362403 0.0
1.87139725552902 -4.55503572417557 0.0
1.79431482901622 -4.13507258183186 0.0
1.65972240612733 -4.53968333362403 0.0
1.72606493228751 -4.97699924740097 0.0
1.9460326180463 -4.99185640176237 0.0
1.87139725552902 -4.55503572417557 0.0
1.72606493228751 -4.97699924740097 0.0
1.79023229386067 -5.43062893659427 0.0
2.0182209244217 -5.44499085449074 0.0
1.9460326180463 -4.99185640176237 0.0
1.79023229386067 -5.43062893659427 0.0
1.85222448281862 -5.90002865271416 0.0
2.08796216887446 -5.9138953320264 0.0
2.0182209244217 -5.44499085449074 0.0
1.85222448281862 -5.90002865271416 0.0
1.9120414792353 -6.38465465932169 0.0
2.15525632898921 -6.39802609501562 0.0
2.08796216887446 -5.9138953320264 0.0
1.9120414792353 -6.38465465932169 0.0
1.96968324521685 -6.88396323304709 0.0
2.22010335795288 -6.89683941536108 0.0
2.15525632898921 -6.39802609501562 0.0
1.96968324521685 -6.88396323304709 0.0
2.02514971590386 -7.39741066022906 0.0
2.28250317170525 -7.40979157198611 0.0
2.22010335795288 -6.89683941536108 0.0
2.02514971590386 -7.39741066022906 0.0
2.07844078744993 -7.92445322452901 0.0
2.34245563066949 -7.93633883746626 0.0
2.28250317170525 -7.40979157198611 0.0
2.07844078744993 -7.92445322452901 0.0
2.12955630257173 -8.46454717844139 0.0
2.39996051628961 -8.47593744859597 0.0
2.34245563066949 -7.93633883746626 0.0
2.12955630257173 -8.46454717844139 0.0
2.17849603572246 -9.01714868799539 0.0
2.4550175041999 -9.02804355053896 0.0
2.39996051628961 -8.47593744859597 0.0
2.17849603572246 -9.01714868799539 0.0
2.22525968264699 -9.58171373520271 0.0
2.50762613913415 -9.59211309980892 0.0
2.4550175041999 -9.02804355053896 0.0
2.22525968264699 -9.58171373520271 0.0
2.26984686370192 -10.1576979572585 0.0
2.55778582258571 -10.1676017063085 0.0
2.50762613913415 -9.59211309980892 0.0
2.26984686370192 -10.1576979572585 0.0
2.31225715773929 -10.744556395997 0.0
2.60549583404157 -10.7539643899378 0.0
2.55778582258571 -10.1676017063085 0.0
2.31225715773929 -10.744556395997 0.0
2.35249019462414 -11.3417431274961 0.0
2.65075542199019 -11.3506552247896 0.0
2.60549583404157 -10.7539643899378 0.0
2.35249019462414 -11.3417431274961 0.0
2.39054585073171 -11.9487107434911 0.0
2.69356402380221 -11.9571268472035 0.0
2.65075542199019 -11.3506552247896 0.0
2.39054585073171 -11.9487107434911 0.0
2.4264246140461 -12.5649096693085 0.0
2.73392170607223 -12.5728298188244 0.0
2.69356402380221 -11.9571268472035 0.0
2.4264246140461 -12.5649096693085 0.0
2.46012821414613 -13.1897873366733 0.0
2.77182996092251 -13.1972118715212 0.0
2.73392170607223 -12.5728298188244 0.0
2.46012821414613 -13.1897873366733 0.0
2.49166064643772 -13.8227872979323 0.0
2.80729305021588 -13.8297171310133 0.0
2.77182996092251 -13.1972118715212 0.0
2.49166064643772 -13.8227872979323 0.0
2.52102975594411 -14.4633484904329 0.0
2.84032015861016 -14.4697855397098 0.0
2.80729305021588 -13.8297171310133 0.0
2.52102975594411 -14.4633484904329 0.0
2.54824957582493 -15.1109050651454 0.0
2.87092869674759 -15.1168529021438 0.0
2.84032015861016 -14.4697855397098 0.0
2.54824957582493 -15.1109050651454 0.0
2.5733436243726 -15.7648875168001 0.0
2.89914918722691 -15.77035230177 0.0
2.87092869674759 -15.1168529021438 0.0
2.5733436243726 -15.7648875168001 0.0
2.59634932012806 -16.4247263855661 0.0
2.92503227155828 -16.4297181296665 0.0
2.89914918722691 -15.77035230177 0.0
2.59634932012806 -16.4247263855661 0.0
2.61732353010316 -17.089860567469 0.0
2.94865851360312 -17.0943948341986 0.0
2.92503227155828 -16.4297181296665 0.0
2.61732353010316 -17.089860567469 0.0
2.63634881343673 -17.7597540315888 0.0
2.97015189198885 -17.7638536558053 0.0
2.94865851360312 -17.0943948341986 0.0
2.63634881343673 -17.7597540315888 0.0
2.65353919878933 -18.4339263091554 0.0
2.98969813966262 -18.4376244263993 0.0
2.97015189198885 -17.7638536558053 0.0
2.65353919878933 -18.4339263091554 0.0
2.66903996919334 -19.1120140906916 0.0
3.00757015350154 -19.115350516322 0.0
2.98969813966262 -18.4376244263993 0.0
2.66903996919334 -19.1120140906916 0.0
2.68301775908142 -19.7938728001615 0.0
3.02415885579677 -19.7969121027183 0.0
3.00757015350154 -19.115350516322 0.0
2.68301775908142 -19.7938728001615 0.0
2.69555192210753 -20.4798820293188 0.0
3.04003121158355 -20.4825988832163 0.0
3.02415885579677 -19.7969121027183 0.0
2.69555192210753 -20.4798820293188 0.0
2.70662477725438 -21.1712904546157 0.0
3.0558107624342 -21.1739601802691 0.0
3.04003121158355 -20.4825988832163 0.0
2.70662477725438 -21.1712904546157 0.0
2.71349769233961 -21.8730769977804 0.0
3.07307473191554 -21.873759569836 0.0
3.0558107624342 -21.1739601802691 0.0
2.71349769233961 -21.8730769977804 0.0
2.71395471958788 -22.6021787446062 0.0
3.08125823969639 -22.6028968220864 0.0
3.07307473191554 -21.873759569836 0.0
2.71395471958788 -22.6021787446062 0.0
2.7304449524925 -23.3637467854821 0.0
3.10434505702419 -23.4115356005958 0.0
3.08125823969639 -22.6028968220864 0.0
0 0 0.0
0.111834636330537 -0.072558275732345 0.0
0.146718009560742 -0.103548280690604 0.0
0 0 0.0
0.111834636330537 -0.072558275732345 0.0
0.233850903728008 -0.144640821826553 0.0
0.270198626621085 -0.169503507783366 0.0
0.146718009560742 -0.103548280690604 0.0
0.233850903728008 -0.144640821826553 0.0
0.347878411998082 -0.2265636418197 0.0
0.39370593189916 -0.252121125636629 0.0
0.270198626621085 -0.169503507783366 0.0
0.347878411998082 -0.2265636418197 0.0
0.460117376972905 -0.330272599887975 0.0
0.517150857585712 -0.355354604013938 0.0
0.39370593189916 -0.252121125636629 0.0
0.460117376972905 -0.330272599887975 0.0
0.570493181777694 -0.45746949298318 0.0
0.63930007342059 -0.482207471095609 0.0
0.517150857585712 -0.355354604013938 0.0
0.570493181777694 -0.45746949298318 0.0
0.678874691392495 -0.608734566960195 0.0
0.759560033695334 -0.633004186018488 0.0
0.63930007342059 -0.482207471095609 0.0
0.678874691392495 -0.608734566960195 0.0
0.785072568286737 -0.783851279034584 0.0
0.87751197311006 -0.80761671918437 0.0
0.759560033695334 -0.633004186018488 0.0
0.785072568286737 -0.783851279034584 0.0
0.888962238804133 -0.982379995519498 0.0
0.992940744014521 -1.00561348273708 0.0
0.87751197311006 -0.80761671918437 0.0
0.888962238804133 -0.982379995519498 0.0
0.9904713002333 -1.20378942006758 0.0
1.10573475518374 -1.2264787760715 0.0
0.992940744014521 -1.00561348273708 0.0
0.9904713002333 -1.20378942006758 0.0
1.08956232938824 -1.44752592891296 0.0
1.21584251730298 -1.4696652110262 0.0
1.10573475518374 -1.2264787760715 0.0
1.08956232938824 -1.44752592891296 0.0
1.18621761716761 -1.71303340653096 0.0
1.32324189323187 -1.73462022249394 0.0
1.21584251730298 -1.4696652110262 0.0
1.18621761716761 -1.71303340653096 0.0
1.28042954566674 -1.99975915695056 0.0
1.42792451161097 -2.02079262268537 0.0
1.32324189323187 -1.73462022249394 0.0
1.28042954566674 -1.99975915695056 0.0
1.37219520741716 -2.30715405009281 0.0
1.52988776368884 -2.32763391884956 0.0
1.42792451161097 -2.02079262268537 0.0
1.37219520741716 -2.30715405009281 0.0
1.46151369010713 -2.63467146481202 0.0
1.62913118784074 -2.65459771049168 0.0
1.52988776368884 -2.32763391884956 0.0
1.46151369010713 -2.63467146481202 0.0
1.54838482604268 -2.98176624818919 0.0
1.72565495815578 -3.00113890414795 0.0
1.62913118784074 -2.65459771049168 0.0
1.54838482604268 -2.98176624818919 0.0
1.63280867114886 -3.34789401532231 0.0
1.81945933990064 -3.36671311794642 0.0
1.72565495815578 -3.00113890414795 0.0
1.63280867114886 -3.34789401532231 0.0
1.71478531545188 -3.73251074666521 0.0
1.91054453629706 -3.75077632178677 0.0
1.81945933990064 -3.36671311794642 0.0
1.71478531545188 -3.73251074666521 0.0
1.79431482901622 -4.13507258183186 0.0
1.998910673517 -4.152784644925 0.0
1.91054453629706 -3.75077632178677 0.0
1.79431482901622 -4.13507258183186 0.0
1.87139725552902 -4.55503572417557 0.0
2.0845578214928 -4.57219428358024 0.0
1.998910673517 -4.152784644925 0.0
1.87139725552902 -4.55503572417557 0.0
1.9460326180463 -4.99185640176237 0.0
2.16748601555655 -5.0084614613554 0.0
2.0845578214928 -4.57219428358024 0.0
1.9460326180463 -4.99185640176237 0.0
2.0182209244217 -5.44499085449074 0.0
2.24769526999229 -5.46104241502663 0.0
2.16748601555655 -5.0084614613554 0.0
2.0182209244217 -5.44499085449074 0.0
2.08796216887446 -5.9138953320264 0.0
2.32518558304103 -5.92939339115888 0.0
2.24769526999229 -5.46104241502663 0.0
2.08796216887446 -5.9138953320264 0.0
2.15525632898921 -6.39802609501562 0.0
2.3999569344907 -6.41297064609769 0.0
2.32518558304103 -5.92939339115888 0.0
2.15525632898921 -6.39802609501562 0.0
2.22010335795288 -6.89683941536108 0.0
2.47200927641539 -6.91123044500309 0.0
2.3999569344907 -6.41297064609769 0.0
2.22010335795288 -6.89683941536108 0.0
2.28250317170525 -7.40979157198611 0.0
2.541342516713 -7.42362905623919 0.0
2.47200927641539 -6.91123044500309 0.0
2.28250317170525 -7.40979157198611 0.0
2.34245563066949 -7.93633883746626 0.0
2.60795649452025 -7.94962273648358 0.0
2.541342516713 -7.42362905623919 0.0
2.34245563066949 -7.93633883746626 0.0
2.39996051628961 -8.47593744859597 0.0
2.67185094674341 -8.4886676997877 0.0
2.60795649452025 -7.94962273648358 0.0
2.39996051628961 -8.47593744859597 0.0
2.4550175041999 -9.02804355053896 0.0
2.73302546629539 -9.04022006069478 0.0
2.67185094674341 -8.4886676997877 0.0
2.4550175041999 -9.02804355053896 0.0
2.50762613913415 -9.59211309980892 0.0
2.79147945592273 -9.60373573759509 0.0
2.73302546629539 -9.04022006069478 0.0
2.50762613913415 -9.59211309980892 0.0
2.55778582258571 -10.1676017063085 0.0
2.84721208790491 -10.1786702982215 0.0
2.79147945592273 -9.60373573759509 0.0
2.55778582258571 -10.1676017063085 0.0
2.60549583404157 -10.7539643899378 0.0
2.90022229110204 -10.7644787255836 0.0
2.84721208790491 -10.1786702982215 0.0
2.60549583404157 -10.7539643899378 0.0
2.65075542199019 -11.3506552247896 0.0
2.95050880510299 -11.3606150817309 0.0
2.90022229110204 -10.7644787255836 0.0
2.65075542199019 -11.3506552247896 0.0
2.69356402380221 -11.9571268472035 0.0
2.99807036946015 -11.9665320521369 0.0
2.95050880510299 -11.3606150817309 0.0
2.69356402380221 -11.9571268472035 0.0
2.73392170607223 -12.5728298188244 0.0
3.04290615754554 -12.5816803711246 0.0
2.99807036946015 -11.9665320521369 0.0
2.73392170607223 -12.5728298188244 0.0
2.77182996092251 -13.1972118715212 0.0
3.08501662297706 -13.205508167746 0.0
3.04290615754554 -12.5816803711246 0.0
2.77182996092251 -13.1972118715212 0.0
2.80729305021588 -13.8297171310133 0.0
3.12440500538134 -13.8374603453572 0.0
3.08501662297706 -13.205508167746 0.0
2.80729305021588 -13.8297171310133 0.0
2.84032015861016 -14.4697855397098 0.0
3.16107984467956 -14.4769782353344 0.0
3.12440500538134 -13.8374603453572 0.0
2.84032015861016 -14.4697855397098 0.0
2.87092869674759 -15.1168529021438 0.0
3.19505898499304 -15.1234999746453 0.0
3.16107984467956 -14.4769782353344 0.0
2.87092869674759 -15.1168529021438 0.0
2.89914918722691 -15.77035230177 0.0
3.22637571756369 -15.7764623799321 0.0
3.19505898499304 -15.1234999746453 0.0
2.89914918722691 -15.77035230177 0.0
2.92503227155828 -16.4297181296665 0.0
3.25508796730293 -16.4353056304678 0.0
3.22637571756369 -15.7764623799321 0.0
2.92503227155828 -16.4297181296665 0.0
2.94865851360312 -17.0943948341986 0.0
3.28129177111207 -17.0994828068675 0.0
3.25508796730293 -16.4353056304678 0.0
2.94865851360312 -17.0943948341986 0.0
2.97015189198885 -17.7638536558053 0.0
3.30514128794838 -17.7684782487777 0.0
3.28129177111207 -17.0994828068675 0.0
2.97015189198885 -17.7638536558053 0.0
2.98969813966262 -18.4376244263993 0.0
3.32687818753275 -18.4418395444552 0.0
3.30514128794838 -17.7684782487777 0.0
2.98969813966262 -18.4376244263993 0.0
3.00757015350154 -19.115350516322 0.0
3.3468813191059 -19.1192430802427 0.0
3.32687818753275 -18.4418395444552 0.0
3.00757015350154 -19.115350516322 0.0
3.02415885579677 -19.7969121027183 0.0
3.36573727787545 -19.8005883730546 0.0
3.3468813191059 -19.1192430802427 0.0
3.02415885579677 -19.7969121027183 0.0
3.04003121158355 -20.4825988832163 0.0
3.38443856369602 -20.4863390830148 0.0
3.36573727787545 -19.8005883730546 0.0
3.04003121158355 -20.4825988832163 0.0
3.0558107624342 -21.1739601802691 0.0
3.40453302330562 -21.1776334499063 0.0
3.38443856369602 -20.4863390830148 0.0
3.0558107624342 -21.1739601802691 0.0
3.07307473191554 -21.873759569836 0.0
3.42965677612363 -21.8800670217409 0.0
3.40453302330562 -21.1776334499063 0.0
3.07307473191554 -21.873759569836 0.0
3.08125823969639 -22.6028968220864 0.0
3.46843638330337 -22.5989133518841 0.0
3.42965677612363 -21.8800670217409 0.0
3.08125823969639 -22.6028968220864 0.0
3.10434505702419 -23.4115356005958 0.0
3.52089402285213 -23.4759694903007 0.0
3.46843638330337 -22.5989133518841 0.0

TENSORS stresses double
-197505.012913815 -84645.0055344921 -19913.1308895595 0.0 0.0 0.0 0.0 0.0 0.0
-161747.314866185 -1210.376756688 -6496.44888656495 0.0 0.0 0.0 0.0 0.0 0.0
-114788.927855704 18914.6462478039 -536.832545293227 0.0 0.0 0.0 0.0 0.0 0.0
-150546.625903334 -64519.9825300002 -13953.5145482878 0.0 0.0 0.0 0.0 0.0 0.0
-130466.209673226 12195.8111831513 732.98449957454 0.0 0.0 0.0 0.0 0.0 0.0
-137536.193124553 -4300.81686994521 1296.19591246944 0.0 0.0 0.0 0.0 0.0 0.0
-135564.953179421 -3455.99975060284 117.865337248269 0.0 0.0 0.0 0.0 0.0 0.0
-128494.969728094 13040.6283024936 -445.346075646636 0.0 0.0 0.0 0.0 0.0 0.0
-137572.119662933 -4316.2139578223 -1908.11001041175 0.0 0.0 0.0 0.0 0.0 0.0
-136770.429808906 -2445.60429842563 1737.96577364284 0.0 0.0 0.0 0.0 0.0 0.0
-124009.164564715 3023.50937765624 1871.58074931403 0.0 0.0 0.0 0.0 0.0 0.0
-124810.854418742 1152.89971825958 -1774.49503474056 0.0 0.0 0.0 0.0 0.0 0.0
-136686.457393626 -2409.61612044854 -2226.62280170116 0.0 0.0 0.0 0.0 0.0 0.0
-137235.087786093 -3689.75370287083 2083.3621072814 0.0 0.0 0.0 0.0 0.0 0.0
-122150.140604654 2775.22366060302 1991.92370853695 0.0 0.0 0.0 0.0 0.0 0.0
-121601.510212187 4055.36124302531 -2318.06120044561 0.0 0.0 0.0 0.0 0.0 0.0
-135490.863132997 -2942.22885154386 -2458.82805097627 0.0 0.0 0.0 0.0 0.0 0.0
-135887.816199898 -3868.45267431412 2069.40699313569 0.0 0.0 0.0 0.0 0.0 0.0
-120038.993545506 2923.89989185383 2003.2481486521 0.0 0.0 0.0 0.0 0.0 0.0
-119642.040478605 3850.12371462409 -2524.98689545986 0.0 0.0 0.0 0.0 0.0 0.0
-133344.587743957 -2778.4976217681 -2535.17916955287 0.0 0.0 0.0 0.0 0.0 0.0
-133885.00200796 -4039.46423777346 2033.45575141849 0.0 0.0 0.0 0.0 0.0 0.0
-117894.77978456 2813.48814368358 1943.3867074181 0.0 0.0 0.0 0.0 0.0 0.0
-117354.365520558 4074.45475968894 -2625.24821355326 0.0 0.0 0.0 0.0 0.0 0.0
-130778.0510495 -2707.91382700489 -2546.50936064238 0.0 0.0 0.0 0.0 0.0 0.0
-131359.795917043 -4065.31851794004 1974.28399555177 0.0 0.0 0.0 0.0 0.0 0.0
-115537.019170364 2715.8715163512 1877.32651762783 0.0 0.0 0.0 0.0 0.0 0.0
-114955.27430282 4073.27620728635 -2643.46683856632 0.0 0.0 0.0 0.0 0.0 0.0
-127963.223087187 -2609.6444480015 -2522.68348980511 0.0 0.0 0.0 0.0 0.0 0.0
-128577.014920456 -4041.8253922958 1915.43215885591 0.0 0.0 0.0 0.0 0.0 0.0
-113043.610150142 2615.34808069572 1813.13351997774 0.0 0.0 0.0 0.0 0.0 0.0
-112429.818316873 4047.52902499002 -2624.98212868328 0.0 0.0 0.0 0.0 0.0 0.0
-125030.222993707 -2521.7717094035 -2482.36218516897 0.0 0.0 0.0 0.0 0.0 0.0
-125658.066729948 -3986.7404272988 1858.00325806289 0.0 0.0 0.0 0.0 0.0 0.0
-110466.787678636 2523.80773754899 1753.36263535608 0.0 0.0 0.0 0.0 0.0 0.0
-109838.943942396 3988.77645544428 -2587.00280787578 0.0 0.0 0.0 0.0 0.0 0.0
-122041.96192977 -2436.98122722261 -2434.52419770725 0.0 0.0 0.0 0.0 0.0 0.0
-122676.662683264 -3917.94965204153 1802.68099212984 0.0 0.0 0.0 0.0 0.0 0.0
-107846.444518834 2437.85813271412 1696.89753321421 0.0 0.0 0.0 0.0 0.0 0.0
-107211.74376534 3918.82655753304 -2540.30765662289 0.0 0.0 0.0 0.0 0.0 0.0
-119030.757221676 -2355.41873993225 -2383.58401782729 0.0 0.0 0.0 0.0 0.0 0.0
-119668.218425984 -3842.8282166525 1748.75781442481 0.0 0.0 0.0 0.0 0.0 0.0
-105205.022013102 2355.68453172565 1642.51428037336 0.0 0.0 0.0 0.0 0.0 0.0
-104567.560808793 3843.09400844589 -2489.82755187874 0.0 0.0 0.0 0.0 0.0 0.0
-116011.042632627 -2275.46716235649 -2331.50961293077 0.0 0.0 0.0 0.0 0.0 0.0
-116649.524184595 -3765.25745028209 1695.67903168013 0.0 0.0 0.0 0.0 0.0 0.0
-102554.363928457 2275.52551663427 1589.26543968545 0.0 0.0 0.0 0.0 0.0 0.0
-101915.882376489 3765.31580455987 -2437.92320492546 0.0 0.0 0.0 0.0 0.0 0.0
-112988.834612912 -2196.39049098949 -2279.10905254664 0.0 0.0 0.0 0.0 0.0 0.0
-113627.601289444 -3686.84606956373 1643.04120627794 0.0 0.0 0.0 0.0 0.0 0.0
-99900.0753835582 2196.37931867313 1536.58009352264 0.0 0.0 0.0 0.0 0.0 0.0
-99261.3087070264 3686.83489724737 -2385.57016530194 0.0 0.0 0.0 0.0 0.0 0.0
-109966.287147203 -2117.71143717475 -2226.6697948369 0.0 0.0 0.0 0.0 0.0 0.0
-110605.084565299 -3608.23874606538 1590.61524699518 0.0 0.0 0.0 0.0 0.0 0.0
-97244.586918887 2117.68881668273 1484.14901064585 0.0 0.0 0.0 0.0 0.0 0.0
-96605.789500791 3608.21612557337 -2333.13603118623 0.0 0.0 0.0 0.0 0.0 0.0
-106944.000058273 -2039.20252876838 -2174.26982222132 0.0 0.0 0.0 0.0 0.0 0.0
-107582.759890481 -3529.64213725429 1538.2811539297 0.0 0.0 0.0 0.0 0.0 0.0
-94588.8314739526 2039.18432697224 1431.82118189499 0.0 0.0 0.0 0.0 0.0 0.0
-93950.0716417443 3529.62393545815 -2280.72979425603 0.0 0.0 0.0 0.0 0.0 0.0
-103922.025800244 -1960.75609858105 -2121.91445738355 0.0 0.0 0.0 0.0 0.0 0.0
-104560.744868905 -3451.1005921254 1485.982468489 0.0 0.0 0.0 0.0 0.0 0.0
-91933.1056283515 1960.74479668342 1379.52929037869 0.0 0.0 0.0 0.0 0.0 0.0
-91294.3865596897 3451.08929022777 -2228.36763549386 0.0 0.0 0.0 0.0 0.0 0.0
-100900.27548958 -1882.32800098609 -2069.5907007719 0.0 0.0 0.0 0.0 0.0 0.0
-101538.966280882 -3372.60651402271 1433.6949316769 0.0 0.0 0.0 0.0 0.0 0.0
-89277.466567311 1882.32193465049 1327.24646646 0.0 0.0 0.0 0.0 0.0 0.0
-88638.7757760096 3372.60044768712 -2176.0391659888 0.0 0.0 0.0 0.0 0.0 0.0
-97878.6559488478 -1803.90208600817 -2017.28542521062 0.0 0.0 0.0 0.0 0.0 0.0
-98517.3305913813 -3294.14291858621 1381.40934202374 0.0 0.0 0.0 0.0 0.0 0.0
-86621.898906061 1803.89923226532 1274.96356826816 0.0 0.0 0.0 0.0 0.0 0.0
-85983.2242635276 3294.14006484336 -2123.73119896619 0.0 0.0 0.0 0.0 0.0 0.0
-94857.1028912702 -1725.47390425287 -1964.98953514146 0.0 0.0 0.0 0.0 0.0 0.0
-95495.7694291031 -3215.69582586308 1329.12285449487 0.0 0.0 0.0 0.0 0.0 0.0
-83966.376065376 1725.4727585914 1222.67843152271 0.0 0.0 0.0 0.0 0.0 0.0
-83327.709527543 3215.69468020161 -2071.43395811362 0.0 0.0 0.0 0.0 0.0 0.0
-91835.5801711885 -1647.04328675684 -1912.69758342374 0.0 0.0 0.0 0.0 0.0 0.0
-92474.2427905734 -3137.25606532141 1276.83505507335 0.0 0.0 0.0 0.0 0.0 0.0
-81310.8785558335 1647.04289242423 1170.39128517588 0.0 0.0 0.0 0.0 0.0 0.0
-80672.2159364487 3137.2556709888 -2019.14135332121 0.0 0.0 0.0 0.0 0.0 0.0
-88814.0723353753 -1568.61158452226 -1860.40645854522 0.0 0.0 0.0 0.0 0.0 0.0
-89452.7322226205 -3058.81798809433 1224.54641230652 0.0 0.0 0.0 0.0 0.0 0.0
-78655.3971746394 1568.61131818329 1118.10309776566 0.0 0.0 0.0 0.0 0.0 0.0
-78016.7372873942 3058.81772175536 -1966.84977308608 0.0 0.0 0.0 0.0 0.0 0.0
-85792.5791792968 -1490.18096952703 -1808.11426711806 0.0 0.0 0.0 0.0 0.0 0.0
-86431.2349883171 -2980.37785724091 1172.25785285707 0.0 0.0 0.0 0.0 0.0 0.0
-75999.9325684041 1490.18032272177 1065.81521802036 0.0 0.0 0.0 0.0 0.0 0.0
-75361.2767593839 2980.37721043565 -1914.55690195476 0.0 0.0 0.0 0.0 0.0 0.0
-82771.1142155499 -1411.75466891212 -1755.81962057401 0.0 0.0 0.0 0.0 0.0 0.0
-83409.7619211916 -2901.93264874288 1119.97085686091 0.0 0.0 0.0 0.0 0.0 0.0
-73344.4952501694 1411.7530674095 1013.52957258729 0.0 0.0 0.0 0.0 0.0 0.0
-72705.8475445276 2901.93104724026 -1862.26090484764 0.0 0.0 0.0 0.0 0.0 0.0
-79749.7069085319 -1333.33764331727 -1703.52127703939 0.0 0.0 0.0 0.0 0.0 0.0
-80388.3390694317 -2823.47935208359 1067.68782313202 0.0 0.0 0.0 0.0 0.0 0.0
-70689.1072188318 1333.33429817353 961.249129648712 0.0 0.0 0.0 0.0 0.0 0.0
-70050.4750579319 2823.47600693985 -1809.9599705227 0.0 0.0 0.0 0.0 0.0 0.0
-76728.4081439907 -1254.9375268946 -1651.218074867 0.0 0.0 0.0 0.0 0.0 0.0
-77367.0126607636 -2745.01473269795 1015.41261712809 0.0 0.0 0.0 0.0 0.0 0.0
-68033.8052387808 1254.9313052947 908.978530999283 0.0 0.0 0.0 0.0 0.0 0.0
-67395.2007220079 2745.00851109804 -1757.65216099581 0.0 0.0 0.0 0.0 0.0 0.0
-73707.298311827 -1176.56572601083 -1598.90915636515 0.0 0.0 0.0 0.0 0.0 0.0
-74345.8568264542 -2666.53559347425 963.151269303899 0.0 0.0 0.0 0.0 0.0 0.0
-65378.6453366125 1176.55504502934 856.724850199369 0.0 0.0 0.0 0.0 0.0 0.0
-64740.0868219853 2666.52491249276 -1705.33557546968 0.0 0.0 0.0 0.0 0.0 0.0
-70686.4969783708 -1098.23851572424 -1546.59456238134 0.0 0.0 0.0 0.0 0.0 0.0
-71324.9832072586 -2588.03971646229 910.912774147155 0.0 0.0 0.0 0.0 0.0 0.0
-62723.7075294088 1098.22128833045 804.498402665866 0.0 0.0 0.0 0.0 0.0 0.0
-62085.2213005211 2588.02248906851 -1653.00893386263 0.0 0.0 0.0 0.0 0.0 0.0
-67666.1720290458 -1019.97778294253 -1494.27636695189 0.0 0.0 0.0 0.0 0.0 0.0
-68304.5506292429 -2509.52785006924 858.709856473081 0.0 0.0 0.0 0.0 0.0 0.0
-60069.0988472555 1019.95148506822 752.313423106887 0.0 0.0 0.0 0.0 0.0 0.0
-59430.7202470584 2509.50155219493 -1600.67280031808 0.0 0.0 0.0 0.0 0.0 0.0
-64646.5439903717 -941.810719124427 -1441.96061377995 0.0 0.0 0.0 0.0 0.0 0.0
-65284.771105322 -2431.00732067501 806.559404170199 0.0 0.0 0.0 0.0 0.0 0.0
-57414.9510424964 941.772706250209 700.188218345157 0.0 0.0 0.0 0.0 0.0 0.0
-56776.7239275462 2430.96930780079 -1548.33179960499 0.0 0.0 0.0 0.0 0.0 0.0
-61627.8774806404 -863.767195811502 -1389.66040593064 0.0 0.0 0.0 0.0 0.0 0.0
-62265.9050081651 -2352.49809336911 754.481979121475 0.0 0.0 0.0 0.0 0.0 0.0
-54761.4066604827 863.715484209068 648.144057867361 0.0 0.0 0.0 0.0 0.0 0.0
-54123.379132958 2352.44638176667 -1495.99832718476 0.0 0.0 0.0 0.0 0.0 0.0
-58610.4457372332 -785.872691541153 -1337.40056575789 0.0 0.0 0.0 0.0 0.0 0.0
-59248.2327293878 -2274.0423399019 702.49935610308 0.0 0.0 0.0 0.0 0.0 0.0
-52108.5830028745 785.80754288955 596.201524077313 0.0 0.0 0.0 0.0 0.0 0.0
-51470.7960107199 2273.9771912503 -1443.69839778365 0.0 0.0 0.0 0.0 0.0 0.0
-55594.4451577181 -708.13338061488 -1285.224269693 0.0 0.0 0.0 0.0 0.0 0.0
-56231.9817334672 -2195.71872402932 650.628341209308 0.0 0.0 0.0 0.0 0.0 0.0
-49456.4975953091 708.060192324148 544.372245251134 0.0 0.0 0.0 0.0 0.0 0.0
-48818.96101956 2195.64553573859 -1391.48036565118 0.0 0.0 0.0 0.0 0.0 0.0
-52579.8241072395 -630.508312788883 -1233.20187192103 0.0 0.0 0.0 0.0 0.0 0.0
-53217.1758960418 -2117.66248666086 598.868125817075 0.0 0.0 0.0 0.0 0.0 0.0
-46804.9309039584 630.442509946304 492.642827683362 0.0 0.0 0.0 0.0 0.0 0.0
-46167.5791151561 2117.59668381828 -1339.42717005474 0.0 0.0 0.0 0.0 0.0 0.0
-49565.9737793984 -552.861579527969 -1181.4415736597 0.0 0.0 0.0 0.0 0.0 0.0
-50203.358104275 -2040.09167090676 547.177131860946 0.0 0.0 0.0 0.0 0.0 0.0
-44153.1926349527 552.836387374216 440.946411048176 0.0 0.0 0.0 0.0 0.0 0.0
-43515.8083100761 2040.066478753 -1287.67229447247 0.0 0.0 0.0 0.0 0.0 0.0
-46551.2101522068 -474.88540573468 -1130.10035631945 0.0 0.0 0.0 0.0 0.0 0.0
-47189.1183392863 -1963.33784225344 495.433831492625 0.0 0.0 0.0 0.0 0.0 0.0
-41499.748681944 474.963439464667 389.115800312713 0.0 0.0 0.0 0.0 0.0 0.0
-40861.8404948645 1963.41587598343 -1236.41838749936 0.0 0.0 0.0 0.0 0.0 0.0
-43531.9601978157 -395.984353051765 -1079.39117623762 0.0 0.0 0.0 0.0 0.0 0.0
-44171.3420836192 -1887.87541992671 443.374864206058 0.0 0.0 0.0 0.0 0.0 0.0
-38841.6609420663 396.273640738815 336.811216572133 0.0 0.0 0.0 0.0 0.0 0.0
-38202.2790562628 1888.16470761376 -1185.95482387155 0.0 0.0 0.0 0.0 0.0 0.0
-40501.5649943837 -315.113810254345 -1029.57810337124 0.0 0.0 0.0 0.0 0.0 0.0
-41144.0886606825 -1814.33569828488 390.504134744746 0.0 0.0 0.0 0.0 0.0 0.0
-36173.8008272766 315.787658889101 283.41685702828 0.0 0.0 0.0 0.0 0.0 0.0
-35531.2771609778 1815.00954691963 -1136.66538108771 0.0 0.0 0.0 0.0 0.0 0.0
-37448.6532324933 -230.577657632366 -980.944035773995 0.0 0.0 0.0 0.0 0.0 0.0
-38097.0390077688 -1743.47779994187 335.971019906387 0.0 0.0 0.0 0.0 0.0 0.0
-33487.8363128875 231.894783578708 227.906724027137 0.0 0.0 0.0 0.0 0.0 0.0
-32839.450537612 1744.79492588821 -1089.00833165325 0.0 0.0 0.0 0.0 0.0 0.0
-34355.1685695089 -139.819040687606 -933.705303059601 0.0 0.0 0.0 0.0 0.0 0.0
-35013.5606699928 -1676.06727515009 278.4290556128 0.0 0.0 0.0 0.0 0.0 0.0
-30771.0904146394 142.134262858506 168.697038865479 0.0 0.0 0.0 0.0 0.0 0.0
-30112.6983141555 1678.38249732099 -1043.43731980692 0.0 0.0 0.0 0.0 0.0 0.0
-31194.4300335685 -39.2970023968337 -887.834857212435 0.0 0.0 0.0 0.0 0.0 0.0
-31868.695914107 -1612.58405698652 215.915856456477 0.0 0.0 0.0 0.0 0.0 0.0
-28005.5684162658 43.0420135168515 103.538209700071 0.0 0.0 0.0 0.0 0.0 0.0
-27331.3025357273 1616.32906810654 -1000.21250396884 0.0 0.0 0.0 0.0 0.0 0.0
-27930.1667626033 75.3570079436122 -842.745916045384 0.0 0.0 0.0 0.0 0.0 0.0
-28627.8848187299 -1552.65178968518 145.849211257496 0.0 0.0 0.0 0.0 0.0 0.0
-25167.8018731699 -69.7590987308595 29.5628685697248 0.0 0.0 0.0 0.0 0.0 0.0
-24470.0838170432 1558.24969889793 -959.032258733155 0.0 0.0 0.0 0.0 0.0 0.0
-24518.3798090243 208.564643045827 -796.794373280319 0.0 0.0 0.0 0.0 0.0 0.0
-25248.0817525172 -1494.07322510427 65.3176759206449 0.0 0.0 0.0 0.0 0.0 0.0
-22230.6895803138 -200.905151302828 -56.2993146615052 0.0 0.0 0.0 0.0 0.0 0.0
-21500.9876368209 1501.73271684727 -918.411363862469 0.0 0.0 0.0 0.0 0.0 0.0
-20915.0987484361 362.919490930481 -746.608468559997 0.0 0.0 0.0 0.0 0.0 0.0
-21684.1013651678 -1431.41994811025 -28.0561660228948 0.0 0.0 0.0 0.0 0.0 0.0
-19169.168306288 -353.591494304592 -156.223268811518 0.0 0.0 0.0 0.0 0.0 0.0
-18400.1656895562 1440.74794473613 -874.775571348621 0.0 0.0 0.0 0.0 0.0 0.0
-17094.2305881339 535.667527761412 -686.390438986952 0.0 0.0 0.0 0.0 0.0 0.0
-17904.2429611294 -1354.36134256125 -134.33354934132 0.0 0.0 0.0 0.0 0.0 0.0
-15972.0438473697 -526.276008092801 -269.335611507224 0.0 0.0 0.0 0.0 0.0 0.0
-15162.0314743742 1363.75286222986 -821.392501152856 0.0 0.0 0.0 0.0 0.0 0.0
-13079.7699580122 713.269944488948 -607.610480327135 0.0 0.0 0.0 0.0 0.0 0.0
-13919.628163779 -1246.39920230024 -248.275484872991 0.0 0.0 0.0 0.0 0.0 0.0
-12661.9556796895 -707.396709119022 -388.25185250079 0.0 0.0 0.0 0.0 0.0 0.0
-11822.0974739227 1252.27243767016 -747.586847954934 0.0 0.0 0.0 0.0 0.0 0.0
-8993.87168519595 864.639288521087 -499.943522624092 0.0 0.0 0.0 0.0 0.0 0.0
-9829.77265326624 -1085.79630364293 -355.174315327047 0.0 0.0 0.0 0.0 0.0 0.0
-9323.08042772659 -868.642492697358 -494.491143338762 0.0 0.0 0.0 0.0 0.0 0.0
-8487.17945965629 1081.79309946665 -639.260350635807 0.0 0.0 0.0 0.0 0.0 0.0
-5114.76475991957 934.921364934218 -354.96137866729 0.0 0.0 0.0 0.0 0.0 0.0
-5880.13596212223 -850.944773538651 -426.220828224633 0.0 0.0 0.0 0.0 0.0 0.0
-6129.54403557293 -957.833947874665 -553.782695258409 0.0 0.0 0.0 0.0 0.0 0.0
-5364.17283337027 828.032190598204 -482.523245701066 0.0 0.0 0.0 0.0 0.0 0.0
-1923.07879187414 844.936870853391 -174.841628189669 0.0 0.0 0.0 0.0 0.0 0.0
-2517.15800117932 -541.247950858705 -414.073878418118 0.0 0.0 0.0 0.0 0.0 0.0
-3354.47087697889 -900.096326201378 -513.087079968982 0.0 0.0 0.0 0.0 0.0 0.0
-2760.39166767371 486.088495510718 -273.854829740533 0.0 0.0 0.0 0.0 0.0 0.0
-78.4367086839385 503.918317353601 5.388678089729 0.0 0.0 0.0 0.0 0.0 0.0
-377.623260971588 -194.183637984248 -257.68051475028 0.0 0.0 0.0 0.0 0.0 0.0
-1298.36543591162 -588.787427244262 -307.544940131555 0.0 0.0 0.0 0.0 0.0 0.0
-999.178883623971 109.314528093587 -44.475747291546 0.0 0.0 0.0 0.0 0.0 0.0
154.73907403478 33.9716484470526 85.5433446490271 0.0 0.0 0.0 0.0 0.0 0.0
208.942472042719 160.446243798911 -33.3902586094977 0.0 0.0 0.0 0.0 0.0 0.0
-207.325139362118 -17.9541610888768 -24.3563589415079 0.0 0.0 0.0 0.0 0.0 0.0
-261.528537370057 -144.428756440735 94.577244317017 0.0 0.0 0.0 0.0 0.0 0.0
-150546.625903334 -64519.9825300002 -13953.5145482878 0.0 0.0 0.0 0.0 0.0 0.0
-126103.922848492 -7487.00873536828 -6738.02646218952 0.0 0.0 0.0 0.0 0.0 0.0
-100849.714547148 3336.22339377914 -2664.24261971581 0.0 0.0 0.0 0.0 0.0 0.0
-125292.41760199 -53696.7504008528 -9879.73070581408 0.0 0.0 0.0 0.0 0.0 0.0
-139809.964720882 -13361.0266806785 -6646.53999254293 0.0 0.0 0.0 0.0 0.0 0.0
-136258.854182946 -5075.10209215988 -369.711194257758 0.0 0.0 0.0 0.0 0.0 0.0
-114289.953388948 4340.14110526787 222.140562065 0.0 0.0 0.0 0.0 0.0 0.0
-117841.063926884 -3945.78348325077 -6054.68823622017 0.0 0.0 0.0 0.0 0.0 0.0
-125504.755422267 -466.202623297453 -2262.07156624658 0.0 0.0 0.0 0.0 0.0 0.0
-126929.674940896 -3791.01483343159 1435.28835480506 0.0 0.0 0.0 0.0 0.0 0.0
-113988.915217215 1755.02504814588 1197.80176836691 0.0 0.0 0.0 0.0 0.0 0.0
-112563.995698586 5079.83725828001 -2499.55815268474 0.0 0.0 0.0 0.0 0.0 0.0
-124522.020588368 -2759.16296806252 -2754.35359495459 0.0 0.0 0.0 0.0 0.0 0.0
-124878.468125037 -3590.87388695671 1586.36349601055 0.0 0.0 0.0 0.0 0.0 0.0
-109685.958306659 2920.201749491 1526.9555732324 0.0 0.0 0.0 0.0 0.0 0.0
-109329.51076999 3751.91266838519 -2813.76151773274 0.0 0.0 0.0 0.0 0.0 0.0
-122370.367998987 -2515.97383293564 -2930.54710798626 0.0 0.0 0.0 0.0 0.0 0.0
-122931.150837958 -3824.46712386669 1540.67064235619 0.0 0.0 0.0 0.0 0.0 0.0
-107281.888711759 2882.35950164699 1447.20683586112 0.0 0.0 0.0 0.0 0.0 0.0
-106721.105872789 4190.85279257804 -3024.01091448133 0.0 0.0 0.0 0.0 0.0 0.0
-120246.522813009 -2673.91225603157 -3087.82571984917 0.0 0.0 0.0 0.0 0.0 0.0
-120780.969669431 -3920.95492101544 1433.86984963961 0.0 0.0 0.0 0.0 0.0 0.0
-104955.03517622 2861.58843321773 1344.79537356934 0.0 0.0 0.0 0.0 0.0 0.0
-104420.588319799 4108.6310982016 -3176.90019591944 0.0 0.0 0.0 0.0 0.0 0.0
-117841.464187691 -2661.16685741267 -3152.98369634481 0.0 0.0 0.0 0.0 0.0 0.0
-118398.883596898 -3961.81214556121 1337.72833359164 0.0 0.0 0.0 0.0 0.0 0.0
-102681.39149212 2774.25589934347 1244.82509872388 0.0 0.0 0.0 0.0 0.0 0.0
-102123.972082914 4074.901187492 -3245.88693121257 0.0 0.0 0.0 0.0 0.0 0.0
-115291.682743407 -2630.15463692238 -3164.58031271947 0.0 0.0 0.0 0.0 0.0 0.0
-115855.435113767 -3945.57683442983 1256.64367593342 0.0 0.0 0.0 0.0 0.0 0.0
-100381.151153482 2686.25914854951 1162.68494754003 0.0 0.0 0.0 0.0 0.0 0.0
-99817.398783122 4001.68134605696 -3258.53904111286 0.0 0.0 0.0 0.0 0.0 0.0
-112650.768906021 -2572.14845968126 -3143.49265192009 0.0 0.0 0.0 0.0 0.0 0.0
-113219.311621798 -3898.74812982779 1188.32588459696 0.0 0.0 0.0 0.0 0.0 0.0
-98057.9467439882 2598.97967494779 1093.56876530078 0.0 0.0 0.0 0.0 0.0 0.0
-97489.4040282111 3925.57934509432 -3238.24977121627 0.0 0.0 0.0 0.0 0.0 0.0
-109964.267708502 -2503.72930984374 -3105.34440738201 0.0 0.0 0.0 0.0 0.0 0.0
-110534.658588666 -3834.64136355944 1127.88904275885 0.0 0.0 0.0 0.0 0.0 0.0
-95718.3415131726 2515.20881165186 1032.82389606488 0.0 0.0 0.0 0.0 0.0 0.0
-95147.9506330087 3846.12086536756 -3200.40955407599 0.0 0.0 0.0 0.0 0.0 0.0
-107255.774878625 -2429.40548782767 -3058.83604233409 0.0 0.0 0.0 0.0 0.0 0.0
-107826.964686624 -3762.18170649329 1071.83513363341 0.0 0.0 0.0 0.0 0.0 0.0
-93369.6155707381 2433.82505745797 976.636832300153 0.0 0.0 0.0 0.0 0.0 0.0
-92798.4257627386 3766.6012761236 -3154.03434366735 0.0 0.0 0.0 0.0 0.0 0.0
-104537.825050011 -2352.55043365907 -3008.60235166541 0.0 0.0 0.0 0.0 0.0 0.0
-105109.263657017 -3685.90718333873 1017.96758736557 0.0 0.0 0.0 0.0 0.0 0.0
-91016.2688704084 2353.94772520774 922.727819531305 0.0 0.0 0.0 0.0 0.0 0.0
-90444.8302634028 3687.30447488739 -3103.84211949967 0.0 0.0 0.0 0.0 0.0 0.0
-101816.208435586 -2274.59780272563 -2956.86801762182 0.0 0.0 0.0 0.0 0.0 0.0
-102387.702908374 -3608.08490589781 965.09958866547 0.0 0.0 0.0 0.0 0.0 0.0
-88660.8162863688 2274.86650353313 869.850509867457 0.0 0.0 0.0 0.0 0.0 0.0
-88089.3218135807 3608.35360670531 -3052.11709641984 0.0 0.0 0.0 0.0 0.0 0.0
-99093.4170256071 -2196.24809899757 -2904.6165360434 0.0 0.0 0.0 0.0 0.0 0.0
-99664.9029618691 -3529.71528360886 912.64293047408 0.0 0.0 0.0 0.0 0.0 0.0
-86304.4948290579 2196.17391616736 817.395274430417 0.0 0.0 0.0 0.0 0.0 0.0
-85733.0088927959 3529.64110077864 -2999.86419208706 0.0 0.0 0.0 0.0 0.0 0.0
-96370.3876847264 -2117.78016483344 -2852.23587442779 0.0 0.0 0.0 0.0 0.0 0.0
-96941.8539876022 -3451.20153821026 860.333257724969 0.0 0.0 0.0 0.0 0.0 0.0
-83947.8620250675 2117.65216001888 765.088873912339 0.0 0.0 0.0 0.0 0.0 0.0
-83376.3957221918 3451.0735333957 -2947.48025824042 0.0 0.0 0.0 0.0 0.0 0.0
-93647.4090733393 -2039.29657495473 -2799.85555966388 0.0 0.0 0.0 0.0 0.0 0.0
-94218.8595053771 -3372.68091637627 808.063493405923 0.0 0.0 0.0 0.0 0.0 0.0
-81591.1428196328 2039.19766322844 712.821754732956 0.0 0.0 0.0 0.0 0.0 0.0
-81019.692387595 3372.58200464998 -2895.09729833685 0.0 0.0 0.0 0.0 0.0 0.0
-90924.5296530351 -1960.82526537257 -2747.50496296157 0.0 0.0 0.0 0.0 0.0 0.0
-91495.9703595761 -3294.1869139682 755.796464640797 0.0 0.0 0.0 0.0 0.0 0.0
-79234.4153629678 1960.76522743535 660.556346883966 0.0 0.0 0.0 0.0 0.0 0.0
-78662.9746564269 3294.12687603098 -2842.7450807184 0.0 0.0 0.0 0.0 0.0 0.0
-88201.7280557928 -1882.36878377533 -2695.1812007854 0.0 0.0 0.0 0.0 0.0 0.0
-88773.1637017213 -3215.71862427527 703.522786502482 0.0 0.0 0.0 0.0 0.0 0.0
-76877.6997462137 1882.33735665656 608.283512181058 0.0 0.0 0.0 0.0 0.0 0.0
-76306.2641002852 3215.68719715649 -2790.42047510682 0.0 0.0 0.0 0.0 0.0 0.0
-85478.9743232033 -1803.92317633898 -2642.8747398793 0.0 0.0 0.0 0.0 0.0 0.0
-86050.4076519603 -3137.26761010521 651.242586997216 0.0 0.0 0.0 0.0 0.0 0.0
-74520.9970078925 1803.90838020956 556.003698871056 0.0 0.0 0.0 0.0 0.0 0.0
-73949.5636791355 3137.2528139758 -2738.11362800546 0.0 0.0 0.0 0.0 0.0 0.0
-82756.247523033 -1725.48469770781 -2590.5771978467 0.0 0.0 0.0 0.0 0.0 0.0
-83327.6796829126 -3058.82640409368 598.958525847528 0.0 0.0 0.0 0.0 0.0 0.0
-72164.3046499828 1725.47718144767 503.719832534252 0.0 0.0 0.0 0.0 0.0 0.0
-71592.8724901032 3058.81888783354 -2685.81589115998 0.0 0.0 0.0 0.0 0.0 0.0
-80033.5384144733 -1647.05157476255 -2538.28253241444 0.0 0.0 0.0 0.0 0.0 0.0
-80604.9692461232 -2980.39018194546 546.673738120408 0.0 0.0 0.0 0.0 0.0 0.0
-69807.6222992512 1647.04422385681 451.435266178771 0.0 0.0 0.0 0.0 0.0 0.0
-69236.1914676014 2980.38283103972 -2633.52100435607 0.0 0.0 0.0 0.0 0.0 0.0
-77310.8488308676 -1568.6242896931 -2485.98626160001 0.0 0.0 0.0 0.0 0.0 0.0
-77882.276865396 -2901.95637025917 494.391730867174 0.0 0.0 0.0 0.0 0.0 0.0
-67450.9538917608 1568.61061844161 399.153725112455 0.0 0.0 0.0 0.0 0.0 0.0
-66879.5258572325 2901.94269900768 -2581.22426735473 0.0 0.0 0.0 0.0 0.0 0.0
-74588.1918415195 -1490.20564574067 -2433.68439200082 0.0 0.0 0.0 0.0 0.0 0.0
-75159.6139757214 -2823.52395887851 442.116992179434 0.0 0.0 0.0 0.0 0.0 0.0
-65094.3091310905 1490.17811739188 346.879969812445 0.0 0.0 0.0 0.0 0.0 0.0
-64522.8869968886 2823.49643052972 -2528.92141436781 0.0 0.0 0.0 0.0 0.0 0.0
-71865.5937834839 -1411.80101934817 -2381.37255093055 0.0 0.0 0.0 0.0 0.0 0.0
-72437.0046467714 -2745.09303368561 389.855847514096 0.0 0.0 0.0 0.0 0.0 0.0
-62737.7052522151 1411.74956398136 294.62070363285 0.0 0.0 0.0 0.0 0.0 0.0
-62166.2943889277 2745.0415783188 -2476.6076948118 0.0 0.0 0.0 0.0 0.0 0.0
-69143.0981499475 -1333.41882076109 -2329.04544313043 0.0 0.0 0.0 0.0 0.0 0.0
-69714.4891999404 -2666.66460407781 337.617382823495 0.0 0.0 0.0 0.0 0.0 0.0
-60381.1693091017 1333.32963485308 242.385541158015 0.0 0.0 0.0 0.0 0.0 0.0
-59809.7782591088 2666.57541816979 -2424.27728479591 0.0 0.0 0.0 0.0 0.0 0.0
-66420.7707831449 -1255.07099687975 -2276.69672364547 0.0 0.0 0.0 0.0 0.0 0.0
-66992.1292161272 -2588.24067383833 285.414281494619 0.0 0.0 0.0 0.0 0.0 0.0
-58024.7406981369 1254.92583387181 190.187875997578 0.0 0.0 0.0 0.0 0.0 0.0
-57453.3822651546 2588.09551083039 -2371.92312914251 0.0 0.0 0.0 0.0 0.0 0.0
-63698.7051800358 -1176.77322979916 -2224.31950256738 0.0 0.0 0.0 0.0 0.0 0.0
-64270.0128599476 -2509.82448292666 233.263289884848 0.0 0.0 0.0 0.0 0.0 0.0
-55668.4730863648 1176.54970575168 138.045343232883 0.0 0.0 0.0 0.0 0.0 0.0
-55097.165406453 2509.60095887918 -2319.53744921935 0.0 0.0 0.0 0.0 0.0 0.0
-60977.0255775971 -1098.54421906218 -2171.9079130991 0.0 0.0 0.0 0.0 0.0 0.0
-61548.2584130183 -2431.42083504493 181.18474941401 0.0 0.0 0.0 0.0 0.0 0.0
-53312.4340942224 1098.21815872474 85.9792768438138 0.0 0.0 0.0 0.0 0.0 0.0
-52741.2012588012 2431.09477470749 -2267.1133856693 0.0 0.0 0.0 0.0 0.0 0.0
-58255.883493309 -1020.40301231236 -2119.46047329787 0.0 0.0 0.0 0.0 0.0 0.0
-58827.0120814711 -2353.03638469071 129.200183371754 0.0 0.0 0.0 0.0 0.0 0.0
-50956.6997831275 1019.95460031372 34.0120853447291 0.0 0.0 0.0 0.0 0.0 0.0
-50385.5711949653 2352.58797269207 -2214.64857132489 0.0 0.0 0.0 0.0 0.0 0.0
-55535.4401719327 -942.362709174249 -2066.98636215816 0.0 0.0 0.0 0.0 0.0 0.0
-56106.4331520921 -2274.67966287945 77.3262494886577 0.0 0.0 0.0 0.0 0.0 0.0
-48601.3390113282 941.789254590774 -17.8392472045712 0.0 0.0 0.0 0.0 0.0 0.0
-48030.3460311689 2274.10620829598 -2162.15185885139 0.0 0.0 0.0 0.0 0.0 0.0
-52815.8225023292 -864.41795583822 -2014.51620616236 0.0 0.0 0.0 0.0 0.0 0.0
-53386.6550005962 -2196.36045179452 25.5624086518648 0.0 0.0 0.0 0.0 0.0 0.0
-46246.3798487464 863.757470426815 -69.576341059299 0.0 0.0 0.0 0.0 0.0 0.0
-45675.5473504795 2195.69996638311 -2109.65495587352 0.0 0.0 0.0 0.0 0.0 0.0
-50097.0330172818 -786.522458945481 -1962.11948107662 0.0 0.0 0.0 0.0 0.0 0.0
-50667.7039043382 -2118.08786207711 -26.1316101039906 0.0 0.0 0.0 0.0 0.0 0.0
-43891.746355934 785.893944381838 -121.243424613393 0.0 0.0 0.0 0.0 0.0 0.0
-43321.0754688776 2117.45934751347 -2057.23129558603 0.0 0.0 0.0 0.0 0.0 0.0
-47378.7854241852 -708.551370582984 -1909.93102540987 0.0 0.0 0.0 0.0 0.0 0.0
-47949.3488927675 -2039.86613060835 -77.8739745221912 0.0 0.0 0.0 0.0 0.0 0.0
-41537.1492146607 708.219445723164 -172.967885952574 0.0 0.0 0.0 0.0 0.0 0.0
-40966.5857460784 2039.53420574853 -2005.02493684025 0.0 0.0 0.0 0.0 0.0 0.0
-44660.2262988852 -630.242161801649 -1858.18909667803 0.0 0.0 0.0 0.0 0.0 0.0
-45230.8454438049 -1961.68683328092 -129.921403654566 0.0 0.0 0.0 0.0 0.0 0.0
-39181.9085182228 630.714706254275 -225.024594474513 0.0 0.0 0.0 0.0 0.0 0.0
-38611.2893733031 1962.15937773354 -1953.29228749797 0.0 0.0 0.0 0.0 0.0 0.0
-41939.4933037167 -551.107344671702 -1807.2862022021 0.0 0.0 0.0 0.0 0.0 0.0
-42510.5256525813 -1883.51615868908 -182.759729997398 0.0 0.0 0.0 0.0 0.0 0.0
-36824.6829998649 553.273549617974 -277.931788141497 0.0 0.0 0.0 0.0 0.0 0.0
-36253.6506510003 1885.68236363535 -1902.4582603462 0.0 0.0 0.0 0.0 0.0 0.0
-39213.0560269001 -470.31489053999 -1757.83035418166 0.0 0.0 0.0 0.0 0.0 0.0
-39785.1825418168 -1805.27675867899 -237.229720677207 0.0 0.0 0.0 0.0 0.0 0.0
-34463.0803245512 475.624191577692 -332.584139829993 0.0 0.0 0.0 0.0 0.0 0.0
-33890.9538096345 1810.58605971669 -1853.18477333445 0.0 0.0 0.0 0.0 0.0 0.0
-36474.7987607283 -386.540852498169 -1710.70631833705 0.0 0.0 0.0 0.0 0.0 0.0
-37049.2069853461 -1726.82670993992 -294.685415619987 0.0 0.0 0.0 0.0 0.0 0.0
-32093.1338258364 397.204644135669 -390.420119722969 0.0 0.0 0.0 0.0 0.0 0.0
-31518.7256012185 1737.49050157742 -1806.44102244003 0.0 0.0 0.0 0.0 0.0 0.0
-33714.8566956816 -297.81944294081 -1667.11060430151 0.0 0.0 0.0 0.0 0.0 0.0
-34293.4820255081 -1647.94521253602 -357.162177937635 0.0 0.0 0.0 0.0 0.0 0.0
-29708.6625332345 316.97742700979 -453.599732908722 0.0 0.0 0.0 0.0 0.0 0.0
-29130.037203408 1667.103196605 -1763.5481592726 0.0 0.0 0.0 0.0 0.0 0.0
-30918.3440267761 -201.457498793738 -1628.50622177169 0.0 0.0 0.0 0.0 0.0 0.0
-31504.15412272 -1568.34772266297 -427.490637939787 0.0 0.0 0.0 0.0 0.0 0.0
-27300.5995793083 233.175653084892 -525.125653930446 0.0 0.0 0.0 0.0 0.0 0.0
-26714.7894833644 1600.06587695412 -1726.14123776235 0.0 0.0 0.0 0.0 0.0 0.0
-28064.366243808 -94.15291741494 -1596.40018077411 0.0 0.0 0.0 0.0 0.0 0.0
-28661.6313096558 -1487.77140439328 -509.220265027063 0.0 0.0 0.0 0.0 0.0 0.0
-24856.5016045412 142.998469227281 -608.764442668373 0.0 0.0 0.0 0.0 0.0 0.0
-24259.2365386933 1536.61695620563 -1695.94435841542 0.0 0.0 0.0 0.0 0.0 0.0
-25126.1467104333 27.4362809877966 -1571.79073346029 0.0 0.0 0.0 0.0 0.0 0.0
-25740.5561190635 -1406.18567248272 -606.107493949045 0.0 0.0 0.0 0.0 0.0 0.0
-22360.6647807742 42.3391867841419 -708.509062054082 0.0 0.0 0.0 0.0 0.0 0.0
-21746.255372144 1475.96114025466 -1674.19230156533 0.0 0.0 0.0 0.0 0.0 0.0
-22073.7418827146 165.306143095409 -1554.08172638124 0.0 0.0 0.0 0.0 0.0 0.0
-22712.0870585756 -1324.16593391369 -720.796265953552 0.0 0.0 0.0 0.0 0.0 0.0
-19795.5879470787 -74.2377432721569 -827.187128597059 0.0 0.0 0.0 0.0 0.0 0.0
-19157.2427712176 1415.23433373694 -1660.47258902475 0.0 0.0 0.0 0.0 0.0 0.0
-18881.563167818 317.487162125275 -1539.27252264067 0.0 0.0 0.0 0.0 0.0 0.0
-19550.5067858058 -1243.38127984616 -852.244559319537 0.0 0.0 0.0 0.0 0.0 0.0
-17145.9089141818 -212.839334864464 -963.735162317497 0.0 0.0 0.0 0.0 0.0 0.0
-16476.9652961941 1348.02910710697 -1650.76312563863 0.0 0.0 0.0 0.0 0.0 0.0
-15543.369953892 473.963076688293 -1517.41379166087 0.0 0.0 0.0 0.0 0.0 0.0
-16246.6171344467 -1166.94701127261 -991.587314381503 0.0 0.0 0.0 0.0 0.0 0.0
-14406.2244639689 -378.207295353555 -1108.79517780728 0.0 0.0 0.0 0.0 0.0 0.0
-13702.9772834142 1262.70279260735 -1634.62165508665 0.0 0.0 0.0 0.0 0.0 0.0
-12096.6707609998 611.60143449035 -1469.83855082921 0.0 0.0 0.0 0.0 0.0 0.0
-12829.8616844981 -1099.17738700573 -1116.71605636205 0.0 0.0 0.0 0.0 0.0 0.0
-11593.9329538631 -569.493645304983 -1238.91454361177 0.0 0.0 0.0 0.0 0.0 0.0
-10860.7420303647 1141.2851761911 -1592.03703807893 0.0 0.0 0.0 0.0 0.0 0.0
-8655.08546446488 690.012421579946 -1367.72455449707 0.0 0.0 0.0 0.0 0.0 0.0
-9398.2585282345 -1044.05806054915 -1187.19565149476 0.0 0.0 0.0 0.0 0.0 0.0
-8766.40736772644 -773.264706045697 -1311.0578287897 0.0 0.0 0.0 0.0 0.0 0.0
-8023.23430395683 960.805776083398 -1491.586731792 0.0 0.0 0.0 0.0 0.0 0.0
-5439.35093387819 652.616622746413 -1175.22775385707 0.0 0.0 0.0 0.0 0.0 0.0
-6148.73571923264 -1002.61454308064 -1143.2558172797 0.0 0.0 0.0 0.0 0.0 0.0
-6036.83394121184 -954.656638214591 -1261.48661483877 0.0 0.0 0.0 0.0 0.0 0.0
-5327.44915585739 700.574527612467 -1293.45855141614 0.0 0.0 0.0 0.0 0.0 0.0
-2779.58335133341 441.307900304739 -863.327951761822 0.0 0.0 0.0 0.0 0.0 0.0
-3382.72543731541 -966.023633653262 -917.677625429039 0.0 0.0 0.0 0.0 0.0 0.0
-3572.94929515067 -1047.54814415409 -1018.20130642604 0.0 0.0 0.0 0.0 0.0 0.0
-2969.80720916867 359.783389803914 -963.851632758822 0.0 0.0 0.0 0.0 0.0 0.0
-1027.43344396049 43.387220641703 -449.066292751603 0.0 0.0 0.0 0.0 0.0 0.0
-1400.0787240503 -826.118432901189 -493.779049026016 0.0 0.0 0.0 0.0 0.0 0.0
-1556.57337101075 -893.187567312808 -555.886595707651 0.0 0.0 0.0 0.0 0.0 0.0
-1183.92809092094 -23.6819137699164 -511.173839433238 0.0 0.0 0.0 0.0 0.0 0.0
-363.24182550874 -381.759762097661 -91.6568645774436 0.0 0.0 0.0 0.0 0.0 0.0
-127.9393093294 167.279442320798 -98.3124289046276 0.0 0.0 0.0 0.0 0.0 0.0
-151.233784474544 157.296095830022 -59.0953428747376 0.0 0.0 0.0 0.0 0.0 0.0
-386.536300653884 -391.743108588437 -52.4397785475536 0.0 0.0 0.0 0.0 0.0 0.0
-125292.41760199 -53696.7504008528 -9879.73070581408 0.0 0.0 0.0 0.0 0.0 0.0
-107920.127841255 -13161.4076258037 -4236.37121387267 0.0 0.0 0.0 0.0 0.0 0.0
-88168.3696194596 -4696.36838789162 -1340.98958708345 0.0 0.0 0.0 0.0 0.0 0.0
-105540.659380195 -45231.7111629407 -6984.34907902486 0.0 0.0 0.0 0.0 0.0 0.0
-124911.477220991 -20443.4145028337 -7626.81683037703 0.0 0.0 0.0 0.0 0.0 0.0
-118514.014283232 -5516.00098139527 -1552.7477182487 0.0 0.0 0.0 0.0 0.0 0.0
-97254.7723907826 3595.10268679723 -486.503895288816 0.0 0.0 0.0 0.0 0.0 0.0
-103652.235328542 -11332.3108346412 -6560.57300741715 0.0 0.0 0.0 0.0 0.0 0.0
-116788.05659287 -4776.30482838313 -4274.44643299844 0.0 0.0 0.0 0.0 0.0 0.0
-116573.104259858 -4274.74938468803 606.16138325131 0.0 0.0 0.0 0.0 0.0 0.0
-99490.9769029838 3046.16233968659 641.986772086674 0.0 0.0 0.0 0.0 0.0 0.0
-99705.929235996 2544.60689599149 -4238.62104416307 0.0 0.0 0.0 0.0 0.0 0.0
-111913.699812633 -2277.86176444872 -3405.40190284834 0.0 0.0 0.0 0.0 0.0 0.0
-112539.971321153 -3739.16195099488 1015.18416817312 0.0 0.0 0.0 0.0 0.0 0.0
-97067.9200725775 2891.71715553731 910.805583419819 0.0 0.0 0.0 0.0 0.0 0.0
-96441.6485640577 4353.01734208346 -3509.78048760164 0.0 0.0 0.0 0.0 0.0 0.0
-109575.118887283 -2468.51090790784 -3535.78231954061 0.0 0.0 0.0 0.0 0.0 0.0
-110118.432065188 -3736.2416563542 976.695980639445 0.0 0.0 0.0 0.0 0.0 0.0
-94324.7580145582 3032.47579391589 886.143784321848 0.0 0.0 0.0 0.0 0.0 0.0
-93781.4448366526 4300.20654236225 -3626.33451585821 0.0 0.0 0.0 0.0 0.0 0.0
-107257.131673228 -2509.97005979959 -3647.41105114111 0.0 0.0 0.0 0.0 0.0 0.0
-107819.456113717 -3822.06042094149 865.761929255159 0.0 0.0 0.0 0.0 0.0 0.0
-92023.3506823301 2947.69904965293 772.041189173594 0.0 0.0 0.0 0.0 0.0 0.0
-91461.0262418407 4259.78941079482 -3741.13179122268 0.0 0.0 0.0 0.0 0.0 0.0
-104988.39302041 -2608.74766666722 -3724.92037552674 0.0 0.0 0.0 0.0 0.0 0.0
-105523.867853632 -3858.18894418389 755.214125590973 0.0 0.0 0.0 0.0 0.0 0.0
-89843.3970997198 2862.01280749268 665.968320054068 0.0 0.0 0.0 0.0 0.0 0.0
-89307.9222664984 4111.45408500935 -3814.16618106365 0.0 0.0 0.0 0.0 0.0 0.0
-102659.875144634 -2630.7634974704 -3748.15001424577 0.0 0.0 0.0 0.0 0.0 0.0
-103183.088005129 -3851.59350529238 664.67721684244 0.0 0.0 0.0 0.0 0.0 0.0
-87738.1926963201 2767.64734133993 577.475073426583 0.0 0.0 0.0 0.0 0.0 0.0
-87214.979835825 3988.47734916191 -3835.35215766162 0.0 0.0 0.0 0.0 0.0 0.0
-100291.340879858 -2612.27330874758 -3736.25750191387 0.0 0.0 0.0 0.0 0.0 0.0
-100805.231569507 -3811.35158459699 590.524193813007 0.0 0.0 0.0 0.0 0.0 0.0
-85661.4956344633 2678.82095899332 504.875745538049 0.0 0.0 0.0 0.0 0.0 0.0
-85147.6049448136 3877.89923484273 -3821.90595018883 0.0 0.0 0.0 0.0 0.0 0.0
-97895.2354585279 -2564.21039417721 -3703.45412556376 0.0 0.0 0.0 0.0 0.0 0.0
-98404.1795685015 -3751.74665078233 527.077688951891 0.0 0.0 0.0 0.0 0.0 0.0
-83597.3182176968 2594.05107099115 442.253670622954 0.0 0.0 0.0 0.0 0.0 0.0
-83088.3741077231 3781.58732759627 -3788.2781438927 0.0 0.0 0.0 0.0 0.0 0.0
-95484.2638180675 -2500.3541863106 -3659.78055078034 0.0 0.0 0.0 0.0 0.0 0.0
-95990.5526515619 -3681.69479779758 469.582129187582 0.0 0.0 0.0 0.0 0.0 0.0
-81537.7832716742 2512.3492221543 385.200656938512 0.0 0.0 0.0 0.0 0.0 0.0
-81031.4944381798 3693.68983364128 -3744.16202302941 0.0 0.0 0.0 0.0 0.0 0.0
-93065.7673442266 -2428.21538036816 -3610.89682261224 0.0 0.0 0.0 0.0 0.0 0.0
-93570.801710133 -3606.62890081644 415.095295979845 0.0 0.0 0.0 0.0 0.0 0.0
-79479.8292950607 2432.35927707169 330.922901662111 0.0 0.0 0.0 0.0 0.0 0.0
-78974.7949291543 3610.77279751997 -3695.06921692998 0.0 0.0 0.0 0.0 0.0 0.0
-90643.8546533053 -2352.22301931887 -3559.7496199713 0.0 0.0 0.0 0.0 0.0 0.0
-91148.3367999066 -3529.34802805512 361.989793213421 0.0 0.0 0.0 0.0 0.0 0.0
-77422.2488537601 2353.26109172196 277.909435446546 0.0 0.0 0.0 0.0 0.0 0.0
-76917.7667071588 3530.38610045821 -3643.82997773817 0.0 0.0 0.0 0.0 0.0 0.0
-88220.5294063337 -2274.5734308096 -3507.7249087411 0.0 0.0 0.0 0.0 0.0 0.0
-88724.7972746645 -3451.19845691466 309.458217770355 0.0 0.0 0.0 0.0 0.0 0.0
-75364.6563318744 2274.57623285252 225.413573048565 0.0 0.0 0.0 0.0 0.0 0.0
-74860.3884635436 3451.20125895758 -3591.76955346289 0.0 0.0 0.0 0.0 0.0 0.0
-85796.6981677983 -2196.29883968632 -3455.41731490048 0.0 0.0 0.0 0.0 0.0 0.0
-86300.8962369785 -3372.76100110674 257.134165282391 0.0 0.0 0.0 0.0 0.0 0.0
-73306.9660563385 2196.06621916757 173.101153752362 0.0 0.0 0.0 0.0 0.0 0.0
-72802.7679871583 3372.52838058799 -3539.45032643051 0.0 0.0 0.0 0.0 0.0 0.0
-83372.726599506 -2117.83115647564 -3403.05200696679 0.0 0.0 0.0 0.0 0.0 0.0
-83876.9102725214 -3294.25972684491 204.868244139123 0.0 0.0 0.0 0.0 0.0 0.0
-71249.1893936506 2117.62064981397 120.837631969889 0.0 0.0 0.0 0.0 0.0 0.0
-70745.0057206352 3294.04922018324 -3487.08261913603 0.0 0.0 0.0 0.0 0.0 0.0
-80948.7421093154 -2039.33051404238 -3350.69859131223 0.0 0.0 0.0 0.0 0.0 0.0
-81452.9287156414 -3215.76592880286 152.607876963311 0.0 0.0 0.0 0.0 0.0 0.0
-69191.356076677 2039.19377361045 68.5767759089906 0.0 0.0 0.0 0.0 0.0 0.0
-68687.169470351 3215.62918837093 -3434.72969236655 0.0 0.0 0.0 0.0 0.0 0.0
-78524.7774529587 -1960.84395908171 -3298.36894502748 0.0 0.0 0.0 0.0 0.0 0.0
-79028.9702218218 -3137.29375309555 100.339419087338 0.0 0.0 0.0 0.0 0.0 0.0
-67133.4909474199 1960.76879307667 16.3072909434932 0.0 0.0 0.0 0.0 0.0 0.0
-66629.2981785569 3137.2185870905 -3382.40107317132 0.0 0.0 0.0 0.0 0.0 0.0
-76100.8341547435 -1882.3782957763 -3246.05772109918 0.0 0.0 0.0 0.0 0.0 0.0
-76605.0320806665 -3058.84012292991 48.0627833313681 0.0 0.0 0.0 0.0 0.0 0.0
-65075.6103151596 1882.3406337159 -35.9702043224612 0.0 0.0 0.0 0.0 0.0 0.0
-64571.4123892366 3058.80246086951 -3330.09070875301 0.0 0.0 0.0 0.0 0.0 0.0
-73676.9075628772 -1803.92961530594 -3193.75680669967 0.0 0.0 0.0 0.0 0.0 0.0
-74181.1089594875 -2980.39954072998 -4.21831956783828 0.0 0.0 0.0 0.0 0.0 0.0
-63017.7242545261 1803.90818996777 -88.2518856695555 0.0 0.0 0.0 0.0 0.0 0.0
-62513.5228579158 2980.37811539181 -3277.79037280139 0.0 0.0 0.0 0.0 0.0 0.0
-71252.9957771061 -1725.49389113793 -3141.45915645816 0.0 0.0 0.0 0.0 0.0 0.0
-71757.1991869542 -2901.96851411679 -56.4993156683722 0.0 0.0 0.0 0.0 0.0 0.0
-60959.8397441899 1725.47124706789 -140.53321730972 0.0 0.0 0.0 0.0 0.0 0.0
-60455.6363343418 2901.94587004675 -3225.49305809951 0.0 0.0 0.0 0.0 0.0 0.0
-68829.1027449355 -1647.07003896592 -3089.15884920188 0.0 0.0 0.0 0.0 0.0 0.0
-69333.3068676728 -2823.546325353 -108.774978591246 0.0 0.0 0.0 0.0 0.0 0.0
-58901.9633205356 1647.02948056295 -192.808999047466 0.0 0.0 0.0 0.0 0.0 0.0
-58397.7591977982 2823.50576695003 -3173.1928696581 0.0 0.0 0.0 0.0 0.0 0.0
-66405.2399728005 -1568.66051326489 -3036.85011807151 0.0 0.0 0.0 0.0 0.0 0.0
-66909.4432459231 -2745.13481721758 -161.038664935502 0.0 0.0 0.0 0.0 0.0 0.0
-56844.1031599471 1568.58236248644 -245.072543789266 0.0 0.0 0.0 0.0 0.0 0.0
-56339.8998868245 2745.05666643913 -3120.88399692528 0.0 0.0 0.0 0.0 0.0 0.0
-63981.4285037603 -1490.27135629066 -2984.52632955974 0.0 0.0 0.0 0.0 0.0 0.0
-64485.6285243574 -2666.73807101736 -213.281260961975 0.0 0.0 0.0 0.0 0.0 0.0
-54786.2707842653 1490.1295318793 -297.314597728168 0.0 0.0 0.0 0.0 0.0 0.0
-54282.0707636681 2666.59624660599 -3068.55966632593 0.0 0.0 0.0 0.0 0.0 0.0
-61557.7015312511 -1411.91221682892 -2932.17924939073 0.0 0.0 0.0 0.0 0.0 0.0
-62061.8943312939 -2588.36208359532 -265.490149750935 0.0 0.0 0.0 0.0 0.0 0.0
-52728.4824825546 1411.67156586438 -349.522283091392 0.0 0.0 0.0 0.0 0.0 0.0
-52224.2896825118 2588.12143263078 -3016.21138273119 0.0 0.0 0.0 0.0 0.0 0.0
-59134.1072873468 -1333.596207618 -2879.79882005146 0.0 0.0 0.0 0.0 0.0 0.0
-59638.286426349 -2510.01419862323 -317.648491466785 0.0 0.0 0.0 0.0 0.0 0.0
-50670.7602763026 1333.21129425379 -401.678347967159 0.0 0.0 0.0 0.0 0.0 0.0
-50166.5811373004 2509.62928525901 -2963.82867655184 0.0 0.0 0.0 0.0 0.0 0.0
-56710.7111346652 -1255.33907361586 -2827.37381668371 0.0 0.0 0.0 0.0 0.0 0.0
-57214.8665951826 -2431.70181482318 -369.73532077886 0.0 0.0 0.0 0.0 0.0 0.0
-48613.1318595156 1254.75592903409 -453.761230865097 0.0 0.0 0.0 0.0 0.0 0.0
-48108.9763989982 2431.11867024141 -2911.39972676995 0.0 0.0 0.0 0.0 0.0 0.0
-54287.594767619 -1177.15674586738 -2774.89404968104 0.0 0.0 0.0 0.0 0.0 0.0
-54791.7117168602 -2353.4296274302 -421.727379222602 0.0 0.0 0.0 0.0 0.0 0.0
-46555.6283702557 1176.32037825747 -505.746870762803 0.0 0.0 0.0 0.0 0.0 0.0
-46051.5114210145 2352.59325982028 -2858.91354122124 0.0 0.0 0.0 0.0 0.0 0.0
-51864.8488176031 -1099.05981346286 -2722.35522739131 0.0 0.0 0.0 0.0 0.0 0.0
-52368.9064524776 -2275.19429483659 -473.604246861501 0.0 0.0 0.0 0.0 0.0 0.0
-44498.2780206233 1097.93217595812 -557.61385267391 0.0 0.0 0.0 0.0 0.0 0.0
-43994.2203857488 2274.06665733184 -2806.36483320372 0.0 0.0 0.0 0.0 0.0 0.0
-49442.552700519 -1021.04268685433 -2669.76819105762 0.0 0.0 0.0 0.0 0.0 0.0
-49946.5236662006 -2196.97494011141 -525.359271105795 0.0 0.0 0.0 0.0 0.0 0.0
-42441.0924463692 1019.63843981632 -609.354432052729 0.0 0.0 0.0 0.0 0.0 0.0
-41937.1214806876 2195.5706930734 -2753.76335200455 0.0 0.0 0.0 0.0 0.0 0.0
-47020.7320053518 -943.064228319075 -2617.17497977474 0.0 0.0 0.0 0.0 0.0 0.0
-47524.5833328981 -2118.71732592713 -577.020051625726 0.0 0.0 0.0 0.0 0.0 0.0
-40384.0410843766 941.515066296393 -660.995272883444 0.0 0.0 0.0 0.0 0.0 0.0
-39880.1897568302 2117.16816390445 -2701.15020103246 0.0 0.0 0.0 0.0 0.0 0.0
-44599.2789530293 -865.015448840477 -2564.67500615245 0.0 0.0 0.0 0.0 0.0 0.0
-45102.9761989071 -2040.30902255548 -628.683799006431 0.0 0.0 0.0 0.0 0.0 0.0
-38327.006973896 863.677788163546 -712.633339986074 0.0 0.0 0.0 0.0 0.0 0.0
-37823.3097280182 2038.97136187855 -2648.6245471321 0.0 0.0 0.0 0.0 0.0 0.0
-42177.8155890515 -786.668761188794 -2512.46531123329 0.0 0.0 0.0 0.0 0.0 0.0
-42681.3330241067 -1961.54277631763 -680.57453513835 0.0 0.0 0.0 0.0 0.0 0.0
-36269.7153077744 786.293387824775 -764.494107647553 0.0 0.0 0.0 0.0 0.0 0.0
-35766.1978727192 1961.16740295362 -2596.38488374249 0.0 0.0 0.0 0.0 0.0 0.0
-39755.4731827492 -707.602844307254 -2460.89893668375 0.0 0.0 0.0 0.0 0.0 0.0
-40258.8146885476 -1882.06635783689 -733.130262687073 0.0 0.0 0.0 0.0 0.0 0.0
-34211.6243295592 709.58665315812 -817.020513653476 0.0 0.0 0.0 0.0 0.0 0.0
-33708.2828237608 1884.05016668776 -2544.78918765015 0.0 0.0 0.0 0.0 0.0 0.0
-37330.5568213251 -627.098700455812 -2410.56392855876 0.0 0.0 0.0 0.0 0.0 0.0
-37833.7949473736 -1801.32099456904 -787.127589004873 0.0 0.0 0.0 0.0 0.0 0.0
-32151.767758935 633.833514761795 -871.000610012961 0.0 0.0 0.0 0.0 0.0 0.0
-31648.5296328865 1808.05580887502 -2494.43694956685 0.0 0.0 0.0 0.0 0.0 0.0
-34900.0657571432 -544.008484470323 -2362.38057419782 0.0 0.0 0.0 0.0 0.0 0.0
-35403.4106602241 -1718.47992499235 -843.846231798083 0.0 0.0 0.0 0.0 0.0 0.0
-30088.540461825 559.321588607258 -927.737048978228 0.0 0.0 0.0 0.0 0.0 0.0
-29585.1955587442 1733.79302912929 -2446.27139137797 0.0 0.0 0.0 0.0 0.0 0.0
-32459.0559368914 -456.613614992624 -2317.70311440812 0.0 0.0 0.0 0.0 0.0 0.0
-32962.9722265596 -1632.41829088497 -905.261609736713 0.0 0.0 0.0 0.0 0.0 0.0
-28019.4269602096 486.243966122145 -989.247658014737 0.0 0.0 0.0 0.0 0.0 0.0
-27515.5106705415 1662.04864201449 -2401.68916268614 0.0 0.0 0.0 0.0 0.0 0.0
-29999.8756041311 -362.519738415631 -2278.38964928634 0.0 0.0 0.0 0.0 0.0 0.0
-30505.2735567044 -1541.78162775341 -974.222551974708 0.0 0.0 0.0 0.0 0.0 0.0
-25940.6887161137 414.469018214042 -1058.45554407026 0.0 0.0 0.0 0.0 0.0 0.0
-25435.2907635404 1593.73090755182 -2362.6226413819 0.0 0.0 0.0 0.0 0.0 0.0
-27511.4005068343 -258.693177809075 -2246.76405682834 0.0 0.0 0.0 0.0 0.0 0.0
-28019.936466714 -1445.27708419491 -1054.51210819789 0.0 0.0 0.0 0.0 0.0 0.0
-23847.0546465074 343.100838750766 -1139.26810151116 0.0 0.0 0.0 0.0 0.0 0.0
-23338.5186866278 1529.6847451366 -2331.52005014161 0.0 0.0 0.0 0.0 0.0 0.0
-24978.5734260989 -141.835781074176 -2225.33081268286 0.0 0.0 0.0 0.0 0.0 0.0
-25493.0933363866 -1342.38223841202 -1150.59130032752 0.0 0.0 0.0 0.0 0.0 0.0
-21731.5050431429 269.727030120983 -1236.3446187088 0.0 0.0 0.0 0.0 0.0 0.0
-21216.9851328553 1470.27348745883 -2311.08413106414 0.0 0.0 0.0 0.0 0.0 0.0
-22382.8471039894 -9.41956738464251 -2216.01915922448 0.0 0.0 0.0 0.0 0.0 0.0
-22907.9722623414 -1234.7116035393 -1266.68751680872 0.0 0.0 0.0 0.0 0.0 0.0
-19585.3115138862 189.285860084334 -1354.20837653405 0.0 0.0 0.0 0.0 0.0 0.0
-19060.1863555342 1414.57789623899 -2303.54001894981 0.0 0.0 0.0 0.0 0.0 0.0
-19704.5502527848 138.183543413499 -2218.65104377938 0.0 0.0 0.0 0.0 0.0 0.0
-20247.2860835362 -1128.20006167294 -1404.74520833767 0.0 0.0 0.0 0.0 0.0 0.0
-17398.6156594901 92.6586914896416 -1495.20118012955 0.0 0.0 0.0 0.0 0.0 0.0
-16855.8798287388 1359.04229657608 -2309.10701557127 0.0 0.0 0.0 0.0 0.0 0.0
-16928.6634326515 294.066788706188 -2228.32120537923 0.0 0.0 0.0 0.0 0.0 0.0
-17498.6386849192 -1035.87546658504 -1560.71850695011 0.0 0.0 0.0 0.0 0.0 0.0
-15162.0292404173 -34.471418941358 -1655.71438232806 0.0 0.0 0.0 0.0 0.0 0.0
-14592.0539881496 1295.47083634987 -2323.31708075718 0.0 0.0 0.0 0.0 0.0 0.0
-14055.7070541516 439.666660886778 -2231.60499971927 0.0 0.0 0.0 0.0 0.0 0.0
-14664.1813859334 -980.106779937369 -1718.98892826129 0.0 0.0 0.0 0.0 0.0 0.0
-12870.0251358305 -211.182672750392 -1820.40131689158 0.0 0.0 0.0 0.0 0.0 0.0
-12261.5508040487 1208.59076807375 -2333.01738834957 0.0 0.0 0.0 0.0 0.0 0.0
-11118.6989523292 539.385691607283 -2202.23078853294 0.0 0.0 0.0 0.0 0.0 0.0
-11774.902641398 -991.756249553167 -1845.71260369791 0.0 0.0 0.0 0.0 0.0 0.0
-10527.0889944754 -456.978972300622 -1955.07988520937 0.0 0.0 0.0 0.0 0.0 0.0
-9870.88530540662 1074.16296885983 -2311.5980700444 0.0 0.0 0.0 0.0 0.0 0.0
-8204.20399149176 538.543171835215 -2098.38479187814 0.0 0.0 0.0 0.0 0.0 0.0
-8907.32346684413 -1102.0689373203 -1884.03627559675 0.0 0.0 0.0 0.0 0.0 0.0
-8157.10365985925 -780.54616289821 -2001.22285482214 0.0 0.0 0.0 0.0 0.0 0.0
-7453.98418450688 860.065946257307 -2215.57137110353 0.0 0.0 0.0 0.0 0.0 0.0
-5468.36525497508 371.770296337862 -1866.43699822319 0.0 0.0 0.0 0.0 0.0 0.0
-6193.93729268857 -1321.23112499361 -1757.86453401293 0.0 0.0 0.0 0.0 0.0 0.0
-5813.93366795268 -1158.37242867823 -1878.79320696518 0.0 0.0 0.0 0.0 0.0 0.0
-5088.36163023919 534.628992653244 -1987.36567117544 0.0 0.0 0.0 0.0 0.0 0.0
-3126.91056064539 -6.79109697510921 -1460.22955193298 0.0 0.0 0.0 0.0 0.0 0.0
-3802.45913439086 -1583.07110238121 -1398.64158131882 0.0 0.0 0.0 0.0 0.0 0.0
-3586.90123724128 -1490.68914645996 -1511.2330102764 0.0 0.0 0.0 0.0 0.0 0.0
-2911.35266349581 85.5908589461392 -1572.82098089056 0.0 0.0 0.0 0.0 0.0 0.0
-1413.43793016113 -559.204871997036 -891.614114326016 0.0 0.0 0.0 0.0 0.0 0.0
-1837.92608272794 -1549.67722798626 -822.255945901718 0.0 0.0 0.0 0.0 0.0 0.0
-1595.1724932429 -1445.63997534981 -893.00397132952 0.0 0.0 0.0 0.0 0.0 0.0
-1170.68434067609 -455.167619360588 -962.362139753818 0.0 0.0 0.0 0.0 0.0 0.0
-667.889012371077 -1048.23276926189 -318.809128741621 0.0 0.0 0.0 0.0 0.0 0.0
-253.467410343053 -81.2490311964996 -245.905065879592 0.0 0.0 0.0 0.0 0.0 0.0
1.69680967404978 28.1070630965445 -176.834798874921 0.0 0.0 0.0 0.0 0.0 0.0
-412.724792353974 -938.876674968844 -249.73886173695 0.0 0.0 0.0 0.0 0.0 0.0
-105540.659380195 -45231.7111629407 -6984.34907902486 0.0 0.0 0.0 0.0 0.0 0.0
-92754.2705558492 -15396.803906134 -2051.53363728766 0.0 0.0 0.0 0.0 0.0 0.0
-75489.416509769 -7997.58074352817 79.5311667699604 0.0 0.0 0.0 0.0 0.0 0.0
-88275.8053341147 -37832.4880003349 -4853.28427496724 0.0 0.0 0.0 0.0 0.0 0.0
-108238.136264931 -22032.7463528835 -7271.11705762136 0.0 0.0 0.0 0.0 0.0 0.0
-101666.587741137 -6699.13313069717 -1622.65514998947 0.0 0.0 0.0 0.0 0.0 0.0
-81896.9710644257 1773.55973075066 -527.397062690447 0.0 0.0 0.0 0.0 0.0 0.0
-88468.5195882198 -13560.0534914357 -6175.85897032233 0.0 0.0 0.0 0.0 0.0 0.0
-104117.744586351 -7749.6289215029 -5374.77229886373 0.0 0.0 0.0 0.0 0.0 0.0
-102697.45753205 -4435.6257948006 -191.245812186746 0.0 0.0 0.0 0.0 0.0 0.0
-84555.1148286803 3339.66393521488 45.4686968634194 0.0 0.0 0.0 0.0 0.0 0.0
-85975.4018829813 25.6608085125699 -5138.05778981356 0.0 0.0 0.0 0.0 0.0 0.0
-99648.1291931237 -3128.77079240372 -4343.01307187506 0.0 0.0 0.0 0.0 0.0 0.0
-99945.2891385438 -3822.14399838404 370.103956983205 0.0 0.0 0.0 0.0 0.0 0.0
-83449.3795375399 3247.53154490336 320.577299413183 0.0 0.0 0.0 0.0 0.0 0.0
-83152.2195921197 3940.90475088367 -4392.53972944508 0.0 0.0 0.0 0.0 0.0 0.0
-96658.8139026189 -2413.6546115591 -4167.03614229483 0.0 0.0 0.0 0.0 0.0 0.0
-97205.9227705204 -3690.24196999574 410.322631495541 0.0 0.0 0.0 0.0 0.0 0.0
-81185.1670622541 3175.79619068981 319.137820178638 0.0 0.0 0.0 0.0 0.0 0.0
-80638.0581943526 4452.38354912645 -4258.22095361173 0.0 0.0 0.0 0.0 0.0 0.0
-94342.1909978029 -2462.9283531168 -4216.95294404899 0.0 0.0 0.0 0.0 0.0 0.0
-94885.3270534102 -3730.2458162006 324.703628128986 0.0 0.0 0.0 0.0 0.0 0.0
-78989.5290507873 3082.23904206636 234.180952194428 0.0 0.0 0.0 0.0 0.0 0.0
-78446.39299518 4349.55650515015 -4307.47561998354 0.0 0.0 0.0 0.0 0.0 0.0
-92169.8986375785 -2566.49078084417 -4261.50374210826 0.0 0.0 0.0 0.0 0.0 0.0
-92683.6349581478 -3765.20886217249 224.475696764003 0.0 0.0 0.0 0.0 0.0 0.0
-76982.7069220949 2963.76029613591 138.852976669123 0.0 0.0 0.0 0.0 0.0 0.0
-76468.9706015256 4162.47837746423 -4347.12646220314 0.0 0.0 0.0 0.0 0.0 0.0
-90055.2176942529 -2638.74432050326 -4276.84478095169 0.0 0.0 0.0 0.0 0.0 0.0
-90536.5558667902 -3761.86672309015 136.457366911527 0.0 0.0 0.0 0.0 0.0 0.0
-75089.9983492689 2858.08649870467 56.2343381553211 0.0 0.0 0.0 0.0 0.0 0.0
-74608.6601767317 3981.20890129156 -4357.0678097079 0.0 0.0 0.0 0.0 0.0 0.0
-87945.9681152836 -2651.61482958734 -4262.92365670388 0.0 0.0 0.0 0.0 0.0 0.0
-88406.6078592053 -3726.44089873791 62.8132376416406 0.0 0.0 0.0 0.0 0.0 0.0
-73266.528728996 2762.16444278037 -13.9600530119718 0.0 0.0 0.0 0.0 0.0 0.0
-72805.8889850743 3836.99051193094 -4339.6969473575 0.0 0.0 0.0 0.0 0.0 0.0
-85833.4863324651 -2623.67453013497 -4230.34065178911 0.0 0.0 0.0 0.0 0.0 0.0
-86281.8722829171 -3669.908414523 -0.797336779635193 0.0 0.0 0.0 0.0 0.0 0.0
-71478.4706803839 2674.40655799121 -75.5283285216372 0.0 0.0 0.0 0.0 0.0 0.0
-71030.0847299319 3720.64044237924 -4305.07164353111 0.0 0.0 0.0 0.0 0.0 0.0
-83716.0485034001 -2570.26965187287 -4187.213030432 0.0 0.0 0.0 0.0 0.0 0.0
-84158.0764553542 -3601.66820643236 -58.5190346041448 0.0 0.0 0.0 0.0 0.0 0.0
-69707.6474699567 2591.37278730941 -132.190359929823 0.0 0.0 0.0 0.0 0.0 0.0
-69265.6195180027 3622.7713418689 -4260.88435575767 0.0 0.0 0.0 0.0 0.0 0.0
-81595.0881128343 -2503.24463106669 -4138.78890847263 0.0 0.0 0.0 0.0 0.0 0.0
-82034.0608844128 -3527.51443141642 -113.178494122393 0.0 0.0 0.0 0.0 0.0 0.0
-67944.4244341869 2510.90119010894 -186.340622718802 0.0 0.0 0.0 0.0 0.0 0.0
-67505.4516626085 3535.17099045868 -4211.95103706904 0.0 0.0 0.0 0.0 0.0 0.0
-79471.9982965109 -2429.4876080299 -4087.93137352268 0.0 0.0 0.0 0.0 0.0 0.0
-79909.6432170502 -3450.65908928835 -166.38786684752 0.0 0.0 0.0 0.0 0.0 0.0
-66184.2409436872 2431.65617072438 -239.328686937409 0.0 0.0 0.0 0.0 0.0 0.0
-65746.5960231478 3452.82765198284 -4160.87219361256 0.0 0.0 0.0 0.0 0.0 0.0
-77347.7828268338 -2352.71892205274 -4036.06685575695 0.0 0.0 0.0 0.0 0.0 0.0
-77784.9119958455 -3372.68698308003 -218.975212424951 0.0 0.0 0.0 0.0 0.0 0.0
-64425.0912441835 2352.95048191798 -291.8300739269 0.0 0.0 0.0 0.0 0.0 0.0
-63987.9620751718 3372.91854294526 -4108.9217172589 0.0 0.0 0.0 0.0 0.0 0.0
-75223.0236511294 -2274.73483534456 -3983.83911190403 0.0 0.0 0.0 0.0 0.0 0.0
-75659.9863977329 -3294.31457741947 -271.326392781072 0.0 0.0 0.0 0.0 0.0 0.0
-62666.1918808026 2274.45450126497 -344.153517214994 0.0 0.0 0.0 0.0 0.0 0.0
-62229.229134199 3294.03424333988 -4056.66623633795 0.0 0.0 0.0 0.0 0.0 0.0
-73098.0260620297 -2196.33157640381 -3931.51016566946 0.0 0.0 0.0 0.0 0.0 0.0
-73534.9547806676 -3215.83191989238 -323.604392796089 0.0 0.0 0.0 0.0 0.0 0.0
-60907.2845756109 2196.02673941768 -396.425845902416 0.0 0.0 0.0 0.0 0.0 0.0
-60470.3558569729 3215.52708290625 -4004.33161877579 0.0 0.0 0.0 0.0 0.0 0.0
-70972.934857368 -2117.82338133541 -3879.17171713253 0.0 0.0 0.0 0.0 0.0 0.0
-71409.8707365776 -3137.34043282444 -375.869560747319 0.0 0.0 0.0 0.0 0.0 0.0
-59148.3131892294 2117.61280175338 -448.69220728225 0.0 0.0 0.0 0.0 0.0 0.0
-58711.3773100198 3137.12985324241 -3951.99436366746 0.0 0.0 0.0 0.0 0.0 0.0
-68847.8128384575 -2039.31561934439 -3826.84740982763 0.0 0.0 0.0 0.0 0.0 0.0
-69284.7633093591 -3058.86671811464 -428.139490365593 0.0 0.0 0.0 0.0 0.0 0.0
-57389.2855912419 2039.19516107841 -500.964568849183 0.0 0.0 0.0 0.0 0.0 0.0
-56952.3351203404 3058.74625984867 -3899.67248831122 0.0 0.0 0.0 0.0 0.0 0.0
-66722.6847511758 -1960.8330503218 -3774.53749006209 0.0 0.0 0.0 0.0 0.0 0.0
-67159.64742477 -2980.4126220417 -480.415963545371 0.0 0.0 0.0 0.0 0.0 0.0
-55630.2220819615 1960.76966773339 -553.243075811078 0.0 0.0 0.0 0.0 0.0 0.0
-55193.2594083672 2980.34923945329 -3847.3646023278 0.0 0.0 0.0 0.0 0.0 0.0
-64597.5599675262 -1882.3751403658 -3722.2361320243 0.0 0.0 0.0 0.0 0.0 0.0
-65034.5312889229 -2901.97489029147 -532.695719914254 0.0 0.0 0.0 0.0 0.0 0.0
-53871.1398465378 1882.33572787359 -605.524273480373 0.0 0.0 0.0 0.0 0.0 0.0
-53434.1685251411 2901.93547779926 -3795.06468559041 0.0 0.0 0.0 0.0 0.0 0.0
-62472.4433687386 -1803.93721021248 -3669.93689234421 0.0 0.0 0.0 0.0 0.0 0.0
-62909.4210707053 -2823.55184813463 -584.973916537727 0.0 0.0 0.0 0.0 0.0 0.0
-52112.0506553826 1803.89261557509 -657.803533532167 0.0 0.0 0.0 0.0 0.0 0.0
-51675.072953416 2823.50725349724 -3742.76650933865 0.0 0.0 0.0 0.0 0.0 0.0
-60347.3405243136 -1725.51732825249 -3617.63356888611 0.0 0.0 0.0 0.0 0.0 0.0
-60784.3238800285 -2745.14515825386 -637.244566083367 0.0 0.0 0.0 0.0 0.0 0.0
-50352.9623702189 1725.43834595025 -710.075125369179 0.0 0.0 0.0 0.0 0.0 0.0
-49915.979014504 2745.06617595162 -3690.46412817192 0.0 0.0 0.0 0.0 0.0 0.0
-58222.2604463174 -1647.11797237769 -3565.31956396118 0.0 0.0 0.0 0.0 0.0 0.0
-58659.249892297 -2666.7600129967 -689.499845236269 0.0 0.0 0.0 0.0 0.0 0.0
-48593.8808767598 1646.96956509067 -762.331419566199 0.0 0.0 0.0 0.0 0.0 0.0
-48156.8914307802 2666.61160570968 -3638.15113829111 0.0 0.0 0.0 0.0 0.0 0.0
-56097.217496018 -1568.74612887714 -3512.98696777294 0.0 0.0 0.0 0.0 0.0 0.0
-56534.2140988829 -2588.40486889528 -741.729071793621 0.0 0.0 0.0 0.0 0.0 0.0
-46834.8114629553 1568.48197507369 -814.561838937774 0.0 0.0 0.0 0.0 0.0 0.0
-46397.8148600904 2588.14071509183 -3585.81973491709 0.0 0.0 0.0 0.0 0.0 0.0
-53972.2329971295 -1490.4129681438 -3460.62585679665 0.0 0.0 0.0 0.0 0.0 0.0
-54409.2377740681 -2510.09078100064 -793.917760689711 0.0 0.0 0.0 0.0 0.0 0.0
-45075.7594376939 1489.97136315977 -866.751890179484 0.0 0.0 0.0 0.0 0.0 0.0
-44638.7546607552 2509.6491760166 -3533.45998628642 0.0 0.0 0.0 0.0 0.0 0.0
-51847.336428814 -1412.133061606 -3408.22415415016 0.0 0.0 0.0 0.0 0.0 0.0
-52284.3493275072 -2431.82982522346 -846.047172092374 0.0 0.0 0.0 0.0 0.0 0.0
-43316.7298903049 1411.43564786322 -918.882655207906 0.0 0.0 0.0 0.0 0.0 0.0
-42879.7169916117 2431.13241148067 -3481.05963726569 0.0 0.0 0.0 0.0 0.0 0.0
-49722.5654502027 -1333.92244923583 -3355.76855089516 0.0 0.0 0.0 0.0 0.0 0.0
-50159.5836707999 -2353.63163062915 -898.095026559815 0.0 0.0 0.0 0.0 0.0 0.0
-41557.7263356261 1332.87865587387 -970.931396659337 0.0 0.0 0.0 0.0 0.0 0.0
-41120.708115029 2352.58783726719 -3428.60492099468 0.0 0.0 0.0 0.0 0.0 0.0
-47597.9632322987 -1255.79429984295 -3303.24733691596 0.0 0.0 0.0 0.0 0.0 0.0
-48034.9784602938 -2275.49649849813 -950.038556479537 0.0 0.0 0.0 0.0 0.0 0.0
-39798.7477287663 1254.31667215651 -1022.87442781205 0.0 0.0 0.0 0.0 0.0 0.0
-39361.7325007713 2274.01887081168 -3376.08320824847 0.0 0.0 0.0 0.0 0.0 0.0
-45473.5704757869 -1177.75021942375 -3250.65651892045 0.0 0.0 0.0 0.0 0.0 0.0
-45910.5644728347 -2197.40287920199 -1001.86181868125 0.0 0.0 0.0 0.0 0.0 0.0
-38039.7830219975 1175.78917115681 -1074.69415152256 0.0 0.0 0.0 0.0 0.0 0.0
-37602.7890249497 2195.44183093505 -3323.48885176175 0.0 0.0 0.0 0.0 0.0 0.0
-43349.4079328991 -1099.76436208671 -3198.01131801189 0.0 0.0 0.0 0.0 0.0 0.0
-43786.3458234736 -2119.28610676055 -1053.57025635197 0.0 0.0 0.0 0.0 0.0 0.0
-36280.8021076639 1097.37548572934 -1126.39323811439 0.0 0.0 0.0 0.0 0.0 0.0
-35843.8642170894 2116.89723040318 -3270.83429977431 0.0 0.0 0.0 0.0 0.0 0.0
-41225.4431339346 -1021.75638267242 -3145.36602533171 0.0 0.0 0.0 0.0 0.0 0.0
-41662.2637051344 -2041.00438213856 -1105.21688434523 0.0 0.0 0.0 0.0 0.0 0.0
-34521.7417116817 1019.21932934115 -1178.02031287853 0.0 0.0 0.0 0.0 0.0 0.0
-34084.921140482 2038.46732880729 -3218.169453865 0.0 0.0 0.0 0.0 0.0 0.0
-39101.532348776 -943.548086556399 -3092.84615859388 0.0 0.0 0.0 0.0 0.0 0.0
-39538.1349071639 -1962.28738946143 -1156.94609935503 0.0 0.0 0.0 0.0 0.0 0.0
-32762.4846998279 941.562699396851 -1229.71319241968 0.0 0.0 0.0 0.0 0.0 0.0
-32325.88214144 1960.30200230188 -3165.61325165853 0.0 0.0 0.0 0.0 0.0 0.0
-36977.3258059871 -864.797774671359 -3040.69764311145 0.0 0.0 0.0 0.0 0.0 0.0
-37413.5539369484 -1882.66341358122 -1209.0626757946 0.0 0.0 0.0 0.0 0.0 0.0
-31002.8315513395 864.789037394046 -1281.76736428817 0.0 0.0 0.0 0.0 0.0 0.0
-30566.6034203781 1882.65467630391 -3113.40233160501 0.0 0.0 0.0 0.0 0.0 0.0
-34852.1214529348 -784.906634718242 -2989.3577557972 0.0 0.0 0.0 0.0 0.0 0.0
-35287.7460378646 -1801.36399955434 -1262.13424080274 0.0 0.0 0.0 0.0 0.0 0.0
-29242.4637353839 789.471272937355 -1334.73833829103 0.0 0.0 0.0 0.0 0.0 0.0
-28806.8391504542 1805.92863777345 -3061.9618532855 0.0 0.0 0.0 0.0 0.0 0.0
-32724.6513411918 -702.894843837435 -2939.55067671611 0.0 0.0 0.0 0.0 0.0 0.0
-33159.3595788158 -1717.21406496017 -1317.13384181856 0.0 0.0 0.0 0.0 0.0 0.0
-27480.9006566744 716.411187386157 -1389.5852147559 0.0 0.0 0.0 0.0 0.0 0.0
-27046.1924190504 1730.73040850889 -3012.00204965345 0.0 0.0 0.0 0.0 0.0 0.0
-30592.787378625 -617.254550592677 -2892.40462318357 0.0 0.0 0.0 0.0 0.0 0.0
-31026.1933502002 -1628.53515093478 -1375.62212436933 0.0 0.0 0.0 0.0 0.0 0.0
-25717.4546043503 646.63859728659 -1447.85645296519 0.0 0.0 0.0 0.0 0.0 0.0
-25284.0486327751 1657.91919762869 -2964.63895177944 0.0 0.0 0.0 0.0 0.0 0.0
-28453.1635589167 -525.80809752755 -2849.57423807724 0.0 0.0 0.0 0.0 0.0 0.0
-28884.8721894795 -1533.12823550748 -1439.95090380271 0.0 0.0 0.0 0.0 0.0 0.0
-23951.1905195186 581.306765904314 -1511.90234222985 0.0 0.0 0.0 0.0 0.0 0.0
-23519.4818889558 1588.62690388425 -2921.52567650438 0.0 0.0 0.0 0.0 0.0 0.0
-26300.7359928102 -425.641294077808 -2813.32588716987 0.0 0.0 0.0 0.0 0.0 0.0
-26730.5198416462 -1428.47027469516 -1513.43329052252 0.0 0.0 0.0 0.0 0.0 0.0
-22180.8957533805 521.368620275878 -1585.06393199518 0.0 0.0 0.0 0.0 0.0 0.0
-21751.1119045445 1524.19760089323 -2884.95652864254 0.0 0.0 0.0 0.0 0.0 0.0
-24128.3498121603 -313.254547772596 -2786.49779659387 0.0 0.0 0.0 0.0 0.0 0.0
-24556.5386173811 -1312.36175995462 -1600.3587280592 0.0 0.0 0.0 0.0 0.0 0.0
-20405.0518775098 466.846842847375 -1671.72352892935 0.0 0.0 0.0 0.0 0.0 0.0
-19976.8630722889 1465.9540550294 -2857.86259746401 0.0 0.0 0.0 0.0 0.0 0.0
-21926.469103729 -185.18911124656 -2772.17475761217 0.0 0.0 0.0 0.0 0.0 0.0
-22354.6965422618 -1184.3864678231 -1705.6230266674 0.0 0.0 0.0 0.0 0.0 0.0
-18621.7654839551 415.441128594057 -1776.99426642287 0.0 0.0 0.0 0.0 0.0 0.0
-18193.5380454223 1414.6384851706 -2843.54599736764 0.0 0.0 0.0 0.0 0.0 0.0
-19683.3778546531 -39.5356017050926 -2772.81842690841 0.0 0.0 0.0 0.0 0.0 0.0
-20115.8411301369 -1048.61657783382 -1833.59334964068 0.0 0.0 0.0 0.0 0.0 0.0
-16828.5533596998 360.221038067781 -1905.6705622213 0.0 0.0 0.0 0.0 0.0 0.0
-16396.090084216 1369.30201419651 -2844.89563948904 0.0 0.0 0.0 0.0 0.0 0.0
-17386.4094449895 121.139858657923 -2788.4919886779 0.0 0.0 0.0 0.0 0.0 0.0
-17831.6816097947 -917.828525887662 -1985.67400942851 0.0 0.0 0.0 0.0 0.0 0.0
-15021.8186824219 286.398442986408 -2059.88603689606 0.0 0.0 0.0 0.0 0.0 0.0
-14576.5465176166 1325.36682753199 -2862.70401614544 0.0 0.0 0.0 0.0 0.0 0.0
-15025.1199384542 284.983618972565 -2813.78991005614 0.0 0.0 0.0 0.0 0.0 0.0
-15498.1466087348 -818.745278348986 -2156.00804509706 0.0 0.0 0.0 0.0 0.0 0.0
-13195.9100813781 167.92751908963 -2234.84582347717 0.0 0.0 0.0 0.0 0.0 0.0
-12722.8834110974 1271.65641641118 -2892.62768843625 0.0 0.0 0.0 0.0 0.0 0.0
-12597.6681723662 424.316908666126 -2833.31105111857 0.0 0.0 0.0 0.0 0.0 0.0
-13120.685505862 -796.056869490742 -2325.12764542546 0.0 0.0 0.0 0.0 0.0 0.0
-11342.0435859361 -33.7817609510694 -2412.29720100809 0.0 0.0 0.0 0.0 0.0 0.0
-10819.0262524403 1186.5920172058 -2920.4806067012 0.0 0.0 0.0 0.0 0.0 0.0
-10121.5456754382 489.288772119477 -2816.32439857827 0.0 0.0 0.0 0.0 0.0 0.0
-10721.2405558018 -909.999282062275 -2452.62974764699 0.0 0.0 0.0 0.0 0.0 0.0
-9448.30927754231 -364.45730566535 -2552.57889437426 0.0 0.0 0.0 0.0 0.0 0.0
-8848.61439717871 1034.8307485164 -2916.27354530554 0.0 0.0 0.0 0.0 0.0 0.0
-7648.13574583331 407.045636495654 -2713.12123354115 0.0 0.0 0.0 0.0 0.0 0.0
-8344.80464357515 -1218.51512490198 -2472.69155850434 0.0 0.0 0.0 0.0 0.0 0.0
-7503.30078094629 -857.87061234675 -2588.80304146131 0.0 0.0 0.0 0.0 0.0 0.0
-6806.63188320445 767.690149050878 -2829.23271649813 0.0 0.0 0.0 0.0 0.0 0.0
-5276.06261395509 96.6600306494788 -2458.83437485764 0.0 0.0 0.0 0.0 0.0 0.0
-6059.06092865764 -1730.33603698982 -2301.02161531102 0.0 0.0 0.0 0.0 0.0 0.0
-5506.71627024448 -1493.61689766989 -2431.52133442811 0.0 0.0 0.0 0.0 0.0 0.0
-4723.71795554192 333.379169969407 -2589.33409397473 0.0 0.0 0.0 0.0 0.0 0.0
-3156.47992420078 -486.372749365446 -1995.0493892364 0.0 0.0 0.0 0.0 0.0 0.0
-3933.39260727394 -2299.16900986948 -1868.14448373822 0.0 0.0 0.0 0.0 0.0 0.0
-3489.22543803032 -2108.81165162222 -1997.62993091708 0.0 0.0 0.0 0.0 0.0 0.0
-2712.31275495716 -296.01539111818 -2124.53483641526 0.0 0.0 0.0 0.0 0.0 0.0
-1517.17571070874 -1263.64748277011 -1319.27361321564 0.0 0.0 0.0 0.0 0.0 0.0
-2004.71451487989 -2401.23802583613 -1187.29257423571 0.0 0.0 0.0 0.0 0.0 0.0
-1542.78087845012 -2203.26646736623 -1268.54904159757 0.0 0.0 0.0 0.0 0.0 0.0
-1055.24207427898 -1065.67592430021 -1400.5300805775 0.0 0.0 0.0 0.0 0.0 0.0
-822.266813990967 -1894.47472545516 -544.027464643138 0.0 0.0 0.0 0.0 0.0 0.0
-334.538868317358 -756.44285221674 -409.44269295889 0.0 0.0 0.0 0.0 0.0 0.0
136.507832577511 -554.565694690368 -328.154702013289 0.0 0.0 0.0 0.0 0.0 0.0
-351.220113096099 -1692.59756792879 -462.739473697537 0.0 0.0 0.0 0.0 0.0 0.0
-88275.8053341147 -37832.4880003349 -4853.28427496724 0.0 0.0 0.0 0.0 0.0 0.0
-78726.3348290165 -15550.3901551056 -300.543966435104 0.0 0.0 0.0 0.0 0.0 0.0
-62791.743749154 -8721.27969230742 1291.03445108127 0.0 0.0 0.0 0.0 0.0 0.0
-72341.2142542523 -31003.3775375367 -3261.70585745087 0.0 0.0 0.0 0.0 0.0 0.0
-91705.4379074673 -21112.8629030131 -6555.9341035274 0.0 0.0 0.0 0.0 0.0 0.0
-85855.1937755554 -7462.29326188542 -1273.90843513368 0.0 0.0 0.0 0.0 0.0 0.0
-67368.1039361774 460.745240705161 -298.867746481699 0.0 0.0 0.0 0.0 0.0 0.0
-73218.3480680893 -13189.8244004226 -5580.89341487542 0.0 0.0 0.0 0.0 0.0 0.0
-89933.624594111 -9210.19218412351 -5884.56916225679 0.0 0.0 0.0 0.0 0.0 0.0
-87978.3697748338 -4647.93093914343 -681.676044583147 0.0 0.0 0.0 0.0 0.0 0.0
-69768.2438629761 3156.40873736705 -355.800241370284 0.0 0.0 0.0 0.0 0.0 0.0
-71723.4986822532 -1405.85250761303 -5558.69335904393 0.0 0.0 0.0 0.0 0.0 0.0
-86575.4745382733 -4046.69012347463 -5119.68447089165 0.0 0.0 0.0 0.0 0.0 0.0
-86488.2829571359 -3843.2431008207 -237.844997421157 0.0 0.0 0.0 0.0 0.0 0.0
-69401.8447999892 3479.51610938504 -223.313067231591 0.0 0.0 0.0 0.0 0.0 0.0
-69489.0363811266 3276.06908673111 -5105.15254070208 0.0 0.0 0.0 0.0 0.0 0.0
-83676.9616139487 -2638.3910965976 -4816.64325044607 0.0 0.0 0.0 0.0 0.0 0.0
-84114.4759243535 -3659.25782087555 -134.470575860532 0.0 0.0 0.0 0.0 0.0 0.0
-67726.8715633041 3364.00119100275 -207.389627594671 0.0 0.0 0.0 0.0 0.0 0.0
-67289.3572528993 4384.8679152807 -4889.56230218021 0.0 0.0 0.0 0.0 0.0 0.0
-81375.7018572794 -2485.49750641521 -4761.08401602271 0.0 0.0 0.0 0.0 0.0 0.0
-81879.0986407062 -3660.09000107771 -177.033923603422 0.0 0.0 0.0 0.0 0.0 0.0
-65834.9233172386 3215.98513755122 -260.933387507886 0.0 0.0 0.0 0.0 0.0 0.0
-65331.5265338119 4390.57763221372 -4844.98347992718 0.0 0.0 0.0 0.0 0.0 0.0
-79358.5401914445 -2579.85066567984 -4758.34133800099 0.0 0.0 0.0 0.0 0.0 0.0
-79831.8481688051 -3684.23594618791 -252.668490089105 0.0 0.0 0.0 0.0 0.0 0.0
-64061.9932011135 3074.27332567992 -331.553152982538 0.0 0.0 0.0 0.0 0.0 0.0
-63588.6852237529 4178.65860618799 -4837.22600089442 0.0 0.0 0.0 0.0 0.0 0.0
-77457.8014234419 -2666.78734103226 -4748.58927646612 0.0 0.0 0.0 0.0 0.0 0.0
-77891.9456814611 -3679.79060974377 -327.7868460653 0.0 0.0 0.0 0.0 0.0 0.0
-62419.1371750582 2951.41303585747 -400.144222401836 0.0 0.0 0.0 0.0 0.0 0.0
-61984.992917039 3964.41630456898 -4820.94665280266 0.0 0.0 0.0 0.0 0.0 0.0
-75607.8363172665 -2700.8865965175 -4723.71813157812 0.0 0.0 0.0 0.0 0.0 0.0
-76012.5467024647 -3645.2108286467 -395.289803319953 0.0 0.0 0.0 0.0 0.0 0.0
-60863.0475535611 2847.43166374054 -462.741534186325 0.0 0.0 0.0 0.0 0.0 0.0
-60458.3371683629 3791.75589586975 -4791.16986244449 0.0 0.0 0.0 0.0 0.0 0.0
-73776.1027034007 -2686.73482904783 -4686.40139383909 0.0 0.0 0.0 0.0 0.0 0.0
-74163.1448938933 -3589.83327353062 -456.14055316031 0.0 0.0 0.0 0.0 0.0 0.0
-59357.2319515176 2755.55798748755 -520.647584909081 0.0 0.0 0.0 0.0 0.0 0.0
-58970.189761025 3658.65643197034 -4750.90842558786 0.0 0.0 0.0 0.0 0.0 0.0
-71950.293731512 -2641.46848965293 -4641.49658039635 0.0 0.0 0.0 0.0 0.0 0.0
-72327.8216722225 -3522.36701797743 -512.745525423609 0.0 0.0 0.0 0.0 0.0 0.0
-57877.1929798179 2670.75956448168 -575.666848875359 0.0 0.0 0.0 0.0 0.0 0.0
-57499.6650391074 3551.65809280618 -4704.4179038481 0.0 0.0 0.0 0.0 0.0 0.0
-70125.6258648742 -2578.56881482817 -4592.50620256283 0.0 0.0 0.0 0.0 0.0 0.0
-70498.5262011822 -3448.66959954685 -567.009178515931 0.0 0.0 0.0 0.0 0.0 0.0
-56409.2866170181 2589.5759365235 -629.159234567266 0.0 0.0 0.0 0.0 0.0 0.0
-56036.3862807101 3459.67672124218 -4654.65625861416 0.0 0.0 0.0 0.0 0.0 0.0
-68300.6977901432 -2506.74313767296 -4541.54074940969 0.0 0.0 0.0 0.0 0.0 0.0
-68671.5425919611 -3372.04767524818 -620.113039903913 0.0 0.0 0.0 0.0 0.0 0.0
-54946.5456086909 2510.09388901049 -681.920506873571 0.0 0.0 0.0 0.0 0.0 0.0
-54575.7008068729 3375.39842658571 -4603.34821637935 0.0 0.0 0.0 0.0 0.0 0.0
-66475.2637234457 -2430.7853030273 -4489.70607022541 0.0 0.0 0.0 0.0 0.0 0.0
-66845.2923302529 -3294.1853855773 -672.69422332479 0.0 0.0 0.0 0.0 0.0 0.0
-53485.7508661007 2431.33238477362 -734.365657792647 0.0 0.0 0.0 0.0 0.0 0.0
-53115.7222592936 3294.73246732362 -4551.37750469326 0.0 0.0 0.0 0.0 0.0 0.0
-64649.4302202684 -2353.1016241554 -4437.53038573584 0.0 0.0 0.0 0.0 0.0 0.0
-65019.1835343147 -3215.85935692998 -725.063927471403 0.0 0.0 0.0 0.0 0.0 0.0
-52025.5509303891 2352.84033046668 -786.689479812445 0.0 0.0 0.0 0.0 0.0 0.0
-51655.7976163429 3215.59806324126 -4499.15593807688 0.0 0.0 0.0 0.0 0.0 0.0
-62823.347510485 -2274.7867752887 -4385.2420290322 0.0 0.0 0.0 0.0 0.0 0.0
-63193.0363231762 -3137.39400490155 -777.360159267762 0.0 0.0 0.0 0.0 0.0 0.0
-50565.4497790007 2274.4287997451 -838.974961382965 0.0 0.0 0.0 0.0 0.0 0.0
-50195.7609663095 3137.03602935796 -4446.8568311474 0.0 0.0 0.0 0.0 0.0 0.0
-60997.1290575852 -2196.29089107682 -4332.92867703281 0.0 0.0 0.0 0.0 0.0 0.0
-61366.8220844183 -3058.90795368734 -829.637621004212 0.0 0.0 0.0 0.0 0.0 0.0
-49105.3033883182 2196.02863035555 -891.253125476392 0.0 0.0 0.0 0.0 0.0 0.0
-48735.6103614851 3058.64569296607 -4394.54418150499 0.0 0.0 0.0 0.0 0.0 0.0
-59170.8440155293 -2117.77449559205 -4280.61790203318 0.0 0.0 0.0 0.0 0.0 0.0
-59540.5561137571 -2980.43605812357 -881.914389072847 0.0 0.0 0.0 0.0 0.0 0.0
-47645.0938183959 2117.61921131693 -943.533072110814 0.0 0.0 0.0 0.0 0.0 0.0
-47275.3817201681 2980.28077384846 -4342.23658507115 0.0 0.0 0.0 0.0 0.0 0.0
-57344.5299308824 -2039.2819797487 -4228.31442255147 0.0 0.0 0.0 0.0 0.0 0.0
-57714.2594347015 -2901.98415532666 -934.193908601439 0.0 0.0 0.0 0.0 0.0 0.0
-46184.8376358764 2039.19661559838 -995.815492571294 0.0 0.0 0.0 0.0 0.0 0.0
-45815.1081320573 2901.89879117634 -4289.93600652132 0.0 0.0 0.0 0.0 0.0 0.0
-55518.2058778811 -1960.81834526078 -4176.01551838078 0.0 0.0 0.0 0.0 0.0 0.0
-55887.948617071 -2823.55140337049 -986.474220035974 0.0 0.0 0.0 0.0 0.0 0.0
-44724.5540728642 1960.76054414672 -1048.09800990095 0.0 0.0 0.0 0.0 0.0 0.0
-44354.8113336743 2823.49360225642 -4237.63930824576 0.0 0.0 0.0 0.0 0.0 0.0
-53691.8817239491 -1882.37987774684 -4123.71645589425 0.0 0.0 0.0 0.0 0.0 0.0
-54061.6353522174 -2745.13834370604 -1038.7511490998 0.0 0.0 0.0 0.0 0.0 0.0
-43264.2567784368 1882.30961648563 -1100.37675381117 0.0 0.0 0.0 0.0 0.0 0.0
-42894.5031501686 2745.06808244483 -4185.34206060562 0.0 0.0 0.0 0.0 0.0 0.0
-51865.5637113388 -1803.96478332952 -4071.41174373955 0.0 0.0 0.0 0.0 0.0 0.0
-52235.3285314299 -2666.74936354205 -1091.01885082081 0.0 0.0 0.0 0.0 0.0 0.0
-41803.9534062143 1803.83997583607 -1152.64632083599 0.0 0.0 0.0 0.0 0.0 0.0
-41434.1885861232 2666.6245560486 -4133.03921375473 0.0 0.0 0.0 0.0 0.0 0.0
-50039.2575919912 -1725.57610378261 -4019.09486374274 0.0 0.0 0.0 0.0 0.0 0.0
-50409.0363464109 -2588.39319742845 -1143.26929294362 0.0 0.0 0.0 0.0 0.0 0.0
-40343.6468486139 1725.34515877023 -1204.89908534689 0.0 0.0 0.0 0.0 0.0 0.0
-39973.8680941943 2588.16225241607 -4080.72465614601 0.0 0.0 0.0 0.0 0.0 0.0
-48212.9703297415 -1647.22204742729 -3966.75760829451 0.0 0.0 0.0 0.0 0.0 0.0
-48582.7677269264 -2510.08264085878 -1195.49141194881 0.0 0.0 0.0 0.0 0.0 0.0
-38883.3360397165 1646.81665365976 -1257.12431147964 0.0 0.0 0.0 0.0 0.0 0.0
-38513.5386425315 2509.67724709125 -4028.39050782533 0.0 0.0 0.0 0.0 0.0 0.0
-46386.7109247263 -1568.91543991588 -3914.38955929746 0.0 0.0 0.0 0.0 0.0 0.0
-46756.5329108247 -2431.8334074788 -1247.67038325219 0.0 0.0 0.0 0.0 0.0 0.0
-37423.0157946662 1568.2453565891 -1309.30738093526 0.0 0.0 0.0 0.0 0.0 0.0
-37053.1938085678 2431.16332415203 -3976.02655698053 0.0 0.0 0.0 0.0 0.0 0.0
-44560.4904647426 -1490.6723591579 -3861.97813033839 0.0 0.0 0.0 0.0 0.0 0.0
-44930.3428686651 -2353.66130164385 -1299.78749215652 0.0 0.0 0.0 0.0 0.0 0.0
-35962.6756350285 1489.62465562896 -1361.42955947694 0.0 0.0 0.0 0.0 0.0 0.0
-35592.823231106 2352.61359811492 -3923.62019765882 0.0 0.0 0.0 0.0 0.0 0.0
-42734.3210933892 -1412.50911223988 -3809.50975794329 0.0 0.0 0.0 0.0 0.0 0.0
-43104.2069840338 -2275.57619041077 -1351.82138151523 0.0 0.0 0.0 0.0 0.0 0.0
-34502.2976665356 1410.95637423133 -1413.46902995601 0.0 0.0 0.0 0.0 0.0 0.0
-34132.411775891 2274.02345240222 -3871.15740638407 0.0 0.0 0.0 0.0 0.0 0.0
-40908.213149179 -1334.43597547296 -3756.97319310437 0.0 0.0 0.0 0.0 0.0 0.0
-41278.1279188131 -2197.57043795258 -1403.75197396625 0.0 0.0 0.0 0.0 0.0 0.0
-33041.8536518297 1332.2613907546 -1465.40443557194 0.0 0.0 0.0 0.0 0.0 0.0
-32671.9388821955 2195.39585323421 -3818.62565471005 0.0 0.0 0.0 0.0 0.0 0.0
-39082.1692149965 -1256.44527917404 -3704.36639791595 0.0 0.0 0.0 0.0 0.0 0.0
-39452.0919937829 -2119.59842967573 -1455.56914984379 0.0 0.0 0.0 0.0 0.0 0.0
-31581.3016255303 1253.59744243252 -1517.22294630819 0.0 0.0 0.0 0.0 0.0 0.0
-31211.3788467439 2116.75059293422 -3766.02019438036 0.0 0.0 0.0 0.0 0.0 0.0
-37256.1731888747 -1178.49037042936 -3651.70929809554 0.0 0.0 0.0 0.0 0.0 0.0
-37626.0527149285 -2041.54259788814 -1507.28934041589 0.0 0.0 0.0 0.0 0.0 0.0
-30120.5828630497 1175.08733863134 -1568.93592809152 0.0 0.0 0.0 0.0 0.0 0.0
-29750.703336996 2038.13956609011 -3713.35588577117 0.0 0.0 0.0 0.0 0.0 0.0
-35430.1717477466 -1100.45075481018 -3599.06555616651 0.0 0.0 0.0 0.0 0.0 0.0
-35799.9043648887 -1963.16019480832 -1558.98456388782 0.0 0.0 0.0 0.0 0.0 0.0
-28659.6208919132 1096.96129360971 -1620.60666674483 0.0 0.0 0.0 0.0 0.0 0.0
-28289.8882747712 1959.67073360785 -3660.68765902351 0.0 0.0 0.0 0.0 0.0 0.0
-33604.044794647 -1022.07752184759 -3546.57750266782 0.0 0.0 0.0 0.0 0.0 0.0
-33973.4420780897 -1884.00451654742 -1610.82996837583 0.0 0.0 0.0 0.0 0.0 0.0
-27198.3257080678 1019.61678489056 -1672.39618228296 0.0 0.0 0.0 0.0 0.0 0.0
-26828.928424625 1881.5437795904 -3608.14371657495 0.0 0.0 0.0 0.0 0.0 0.0
-31777.5607986399 -942.912539640363 -3494.51910756116 0.0 0.0 0.0 0.0 0.0 0.0
-32146.3049670028 -1803.31559915361 -1663.17729196884 0.0 0.0 0.0 0.0 0.0 0.0
-25736.6086124296 943.697124234879 -1724.63465336264 0.0 0.0 0.0 0.0 0.0 0.0
-25367.8644440668 1804.10018374813 -3555.97646895497 0.0 0.0 0.0 0.0 0.0 0.0
-29950.3125661175 -862.175998774208 -3443.37178096617 0.0 0.0 0.0 0.0 0.0 0.0
-30317.9004195616 -1719.88099014385 -1716.66199058669 0.0 0.0 0.0 0.0 0.0 0.0
-24274.4161532334 870.183695425361 -1777.92663282738 0.0 0.0 0.0 0.0 0.0 0.0
-23906.8282997893 1727.88868679501 -3504.63642320685 0.0 0.0 0.0 0.0 0.0 0.0
-28121.629103228 -778.621854572319 -3393.92570194911 0.0 0.0 0.0 0.0 0.0 0.0
-28487.3117687037 -1631.881407349 -1772.34951023961 0.0 0.0 0.0 0.0 0.0 0.0
-22811.7950977205 800.482880215248 -1833.29662115223 0.0 0.0 0.0 0.0 0.0 0.0
-22446.1124322448 1653.74243299193 -3454.87281286173 0.0 0.0 0.0 0.0 0.0 0.0
-26290.4597448045 -690.373397106467 -3347.40324726314 0.0 0.0 0.0 0.0 0.0 0.0
-26653.1995482913 -1536.76627190889 -1831.91837248661 0.0 0.0 0.0 0.0 0.0 0.0
-21349.0024865734 736.461040255914 -1892.37500640106 0.0 0.0 0.0 0.0 0.0 0.0
-20986.2626830866 1582.85391505834 -3407.8598811776 0.0 0.0 0.0 0.0 0.0 0.0
-24455.2268328967 -594.777965311232 -3305.5875960258 0.0 0.0 0.0 0.0 0.0 0.0
-24813.7196831493 -1431.26128256715 -1897.85949700786 0.0 0.0 0.0 0.0 0.0 0.0
-19886.6713365865 680.330865959755 -1957.60830538328 0.0 0.0 0.0 0.0 0.0 0.0
-19528.1784863339 1516.81418321567 -3365.33640440122 0.0 0.0 0.0 0.0 0.0 0.0
-22613.6410681751 -488.370447578238 -3270.91368342055 0.0 0.0 0.0 0.0 0.0 0.0
-22966.4999913039 -1311.70793487862 -1973.63490113251 0.0 0.0 0.0 0.0 0.0 0.0
-18426.0242532957 634.210238553445 -2032.44472165396 0.0 0.0 0.0 0.0 0.0 0.0
-18073.165330167 1457.54772585382 -3329.72350394201 0.0 0.0 0.0 0.0 0.0 0.0
-20762.4673102123 -367.122500125093 -3246.43356660134 0.0 0.0 0.0 0.0 0.0 0.0
-21108.7355613124 -1175.08175269198 -2063.67407996263 0.0 0.0 0.0 0.0 0.0 0.0
-16969.0773580769 599.057477266082 -2121.38545514598 0.0 0.0 0.0 0.0 0.0 0.0
-16622.8091069768 1407.01672983297 -3304.14494178468 0.0 0.0 0.0 0.0 0.0 0.0
-18897.2217292249 -227.290110368756 -3235.49654840092 0.0 0.0 0.0 0.0 0.0 0.0
-19237.4742843098 -1021.21273890024 -2172.98135173853 0.0 0.0 0.0 0.0 0.0 0.0
-15518.6710959914 572.560056093347 -2229.69011091935 0.0 0.0 0.0 0.0 0.0 0.0
-15178.4185409065 1366.48268462483 -3292.20530758174 0.0 0.0 0.0 0.0 0.0 0.0
-17011.7988845707 -67.3518532977851 -3240.8827248047 0.0 0.0 0.0 0.0 0.0 0.0
-17350.1504862528 -856.83892388918 -2305.9775383364 0.0 0.0 0.0 0.0 0.0 0.0
-14077.9823336137 545.518855813271 -2362.36947195007 0.0 0.0 0.0 0.0 0.0 0.0
-13739.6307319317 1335.00592640467 -3297.27465841837 0.0 0.0 0.0 0.0 0.0 0.0
-15098.1436441696 108.306865575032 -3263.01099226054 0.0 0.0 0.0 0.0 0.0 0.0
-15445.3728159604 -701.894535270177 -2464.03064931588 0.0 0.0 0.0 0.0 0.0 0.0
-12648.9416156541 496.575979146814 -2521.90217794768 0.0 0.0 0.0 0.0 0.0 0.0
-12301.7124438633 1306.77737999202 -3320.88252089234 0.0 0.0 0.0 0.0 0.0 0.0
-13146.4375446359 283.363438154596 -3296.77230085607 0.0 0.0 0.0 0.0 0.0 0.0
-13523.8835587596 -597.343928134051 -2641.05552250093 0.0 0.0 0.0 0.0 0.0 0.0
-11228.8748345167 386.231239398652 -2703.96319152155 0.0 0.0 0.0 0.0 0.0 0.0
-10851.428820393 1266.9386056873 -3359.67996987669 0.0 0.0 0.0 0.0 0.0 0.0
-11146.9997298219 421.320569982119 -3326.69030572497 0.0 0.0 0.0 0.0 0.0 0.0
-11589.5062219517 -611.194578320656 -2816.87584289498 0.0 0.0 0.0 0.0 0.0 0.0
-9805.15560204671 153.527115924329 -2890.6269249166 0.0 0.0 0.0 0.0 0.0 0.0
-9362.64910991695 1186.0422642271 -3400.44138774659 0.0 0.0 0.0 0.0 0.0 0.0
-9096.07703319424 457.417931146816 -3320.85218719243 0.0 0.0 0.0 0.0 0.0 0.0
-9649.77543277982 -834.545001219523 -2949.31247424933 0.0 0.0 0.0 0.0 0.0 0.0
-8349.386437479 -277.235431804886 -3041.59554084693 0.0 0.0 0.0 0.0 0.0 0.0
-7795.68803789342 1014.72750056145 -3413.13525379002 0.0 0.0 0.0 0.0 0.0 0.0
-7008.09803844195 297.602453496705 -3225.96629637321 0.0 0.0 0.0 0.0 0.0 0.0
-7715.5787133886 -1353.18578804547 -2968.9717349884 0.0 0.0 0.0 0.0 0.0 0.0
-6816.09774854178 -967.693945968261 -3086.88518081284 0.0 0.0 0.0 0.0 0.0 0.0
-6108.61707359514 683.094295573911 -3343.87974219765 0.0 0.0 0.0 0.0 0.0 0.0
-4935.99588798423 -161.93600572931 -2969.50278750182 0.0 0.0 0.0 0.0 0.0 0.0
-5798.16666632008 -2173.6678218463 -2785.8120274026 0.0 0.0 0.0 0.0 0.0 0.0
-5155.24900597283 -1898.13168169748 -2929.50715712525 0.0 0.0 0.0 0.0 0.0 0.0
-4293.07822763697 113.600134419514 -3113.19791722446 0.0 0.0 0.0 0.0 0.0 0.0
-3003.76315103276 -976.066315294591 -2478.82552938975 0.0 0.0 0.0 0.0 0.0 0.0
-3905.50218450256 -3080.12406005745 -2319.89494818687 0.0 0.0 0.0 0.0 0.0 0.0
-3349.24515029247 -2841.72818825312 -2470.1847870985 0.0 0.0 0.0 0.0 0.0 0.0
-2447.50611682268 -737.670443490268 -2629.11536830138 0.0 0.0 0.0 0.0 0.0 0.0
-1471.51882075122 -2036.98833273544 -1722.79509784729 0.0 0.0 0.0 0.0 0.0 0.0
-2063.87318585047 -3419.14851796705 -1555.21205696712 0.0 0.0 0.0 0.0 0.0 0.0
-1477.33254276989 -3167.77395664679 -1653.93778448366 0.0 0.0 0.0 0.0 0.0 0.0
-884.978177670628 -1785.61377141519 -1821.52082536383 0.0 0.0 0.0 0.0 0.0 0.0
-872.312420496449 -2908.47961852961 -749.402489067092 0.0 0.0 0.0 0.0 0.0 0.0
-435.530943708483 -1889.32283935769 -563.348096306059 0.0 0.0 0.0 0.0 0.0 0.0
215.659430955131 -1610.24125021614 -490.551183508065 0.0 0.0 0.0 0.0 0.0 0.0
-221.122045832834 -2629.39802938806 -676.605576269097 0.0 0.0 0.0 0.0 0.0 0.0
-72341.2142542523 -31003.3775375367 -3261.70585745087 0.0 0.0 0.0 0.0 0.0 0.0
-65236.0881257137 -14424.7499042801 1065.0846395173 0.0 0.0 0.0 0.0 0.0 0.0
-50092.3213863252 -7934.56415882789 2249.27232760705 0.0 0.0 0.0 0.0 0.0 0.0
-57197.4475148637 -24513.1917920844 -2077.51816936111 0.0 0.0 0.0 0.0 0.0 0.0
-75662.6924446491 -18893.2946123953 -5806.84322643939 0.0 0.0 0.0 0.0 0.0 0.0
-70830.0069429656 -7617.0284418005 -798.953273200722 0.0 0.0 0.0 0.0 0.0 0.0
-53302.3921066302 -105.193511942492 6.49431041319093 0.0 0.0 0.0 0.0 0.0 0.0
-58135.0776083137 -11381.4596825373 -5001.39564282548 0.0 0.0 0.0 0.0 0.0 0.0
-75185.4016890414 -9483.62619011869 -6058.77888576295 0.0 0.0 0.0 0.0 0.0 0.0
-73169.8151143041 -4780.59084906512 -930.022343419549 0.0 0.0 0.0 0.0 0.0 0.0
-55219.1672161022 2912.54396444999 -594.091247630008 0.0 0.0 0.0 0.0 0.0 0.0
-57234.7537908395 -1790.49137660359 -5722.84778997341 0.0 0.0 0.0 0.0 0.0 0.0
-72890.6076324546 -4660.93049970106 -5679.37464275135 0.0 0.0 0.0 0.0 0.0 0.0
-72549.0492505586 -3863.96094194351 -724.057455882383 0.0 0.0 0.0 0.0 0.0 0.0
-55205.4390965172 3569.01483835993 -667.131058899702 0.0 0.0 0.0 0.0 0.0 0.0
-55546.9974784133 2772.04528060238 -5622.44824576866 0.0 0.0 0.0 0.0 0.0 0.0
-70436.5617034687 -2958.60913604785 -5390.306690831 0.0 0.0 0.0 0.0 0.0 0.0
-70727.0500827595 -3636.41535439309 -622.51338794875 0.0 0.0 0.0 0.0 0.0 0.0
-54039.7735226716 3515.27459993029 -670.928117830552 0.0 0.0 0.0 0.0 0.0 0.0
-53749.2851433808 4193.08081827552 -5438.7214207128 0.0 0.0 0.0 0.0 0.0 0.0
-68331.7050532672 -2609.83891318212 -5260.10724028126 0.0 0.0 0.0 0.0 0.0 0.0
-68760.8167223404 -3611.0994743529 -624.812795960524 0.0 0.0 0.0 0.0 0.0 0.0
-52537.2861672179 3341.8421921282 -696.331407472723 0.0 0.0 0.0 0.0 0.0 0.0
-52108.1744981447 4343.10275329898 -5331.62585179346 0.0 0.0 0.0 0.0 0.0 0.0
-66514.5786288547 -2648.42600571614 -5201.10540934706 0.0 0.0 0.0 0.0 0.0 0.0
-66930.3047535038 -3618.45362989738 -669.583725770904 0.0 0.0 0.0 0.0 0.0 0.0
-51069.9788609872 3178.82889546685 -738.871413212421 0.0 0.0 0.0 0.0 0.0 0.0
-50654.2527363381 4148.8565196481 -5270.39309678858 0.0 0.0 0.0 0.0 0.0 0.0
-64853.3044694293 -2728.31065100832 -5158.97722559102 0.0 0.0 0.0 0.0 0.0 0.0
-65229.6669550256 -3606.48978406633 -725.714738654553 0.0 0.0 0.0 0.0 0.0 0.0
-49713.2482507479 3043.40394633837 -788.441819587268 0.0 0.0 0.0 0.0 0.0 0.0
-49336.8857651516 3921.58307939639 -5221.70430652374 0.0 0.0 0.0 0.0 0.0 0.0
-63268.8669483302 -2766.14692405405 -5116.74037869721 0.0 0.0 0.0 0.0 0.0 0.0
-63612.7865259699 -3568.62593854653 -782.954111766842 0.0 0.0 0.0 0.0 0.0 0.0
-48444.5345917136 2932.05346184902 -840.274041373447 0.0 0.0 0.0 0.0 0.0 0.0
-48100.615014074 3734.53247634149 -5174.06030830381 0.0 0.0 0.0 0.0 0.0 0.0
-61719.9287334337 -2757.40117031674 -5071.12100316838 0.0 0.0 0.0 0.0 0.0 0.0
-62043.290771275 -3511.91259194656 -838.76347919806 0.0 0.0 0.0 0.0 0.0 0.0
-47230.0394373789 2836.62369400892 -892.657152171619 0.0 0.0 0.0 0.0 0.0 0.0
-46906.6773995376 3591.13511563874 -5125.01467614194 0.0 0.0 0.0 0.0 0.0 0.0
-60185.7238588649 -2715.81248662793 -5022.53379813708 0.0 0.0 0.0 0.0 0.0 0.0
-60497.7987608749 -3443.98725798456 -893.099704391767 0.0 0.0 0.0 0.0 0.0 0.0
-46044.7794327663 2750.16388263341 -945.112188060097 0.0 0.0 0.0 0.0 0.0 0.0
-45732.7045307563 3478.33865399004 -5074.54628180541 0.0 0.0 0.0 0.0 0.0 0.0
-58656.9920617671 -2655.07010122405 -4972.08911413057 0.0 0.0 0.0 0.0 0.0 0.0
-58963.461963283 -3370.1665380947 -946.444912763343 0.0 0.0 0.0 0.0 0.0 0.0
-44873.7072584977 2668.29976395614 -997.523229682675 0.0 0.0 0.0 0.0 0.0 0.0
-44567.2373569818 3383.39620082679 -5023.1674310499 0.0 0.0 0.0 0.0 0.0 0.0
-57129.8761531379 -2584.34404803248 -4920.63389457543 0.0 0.0 0.0 0.0 0.0 0.0
-57433.8169675498 -3293.53928166023 -999.228200952611 0.0 0.0 0.0 0.0 0.0 0.0
-43708.8970398699 2588.569258774 -1049.88500335459 0.0 0.0 0.0 0.0 0.0 0.0
-43404.956225458 3297.76449240175 -4971.29069697741 0.0 0.0 0.0 0.0 0.0 0.0
-55602.9936181525 -2508.9007033471 -4868.6851987723 0.0 0.0 0.0 0.0 0.0 0.0
-55905.9073390026 -3215.69938533078 -1051.7267782571 0.0 0.0 0.0 0.0 0.0 0.0
-42546.5528671994 2509.73824544203 -1102.21239839879 0.0 0.0 0.0 0.0 0.0 0.0
-42243.6391463492 3216.53692742571 -4919.17081891399 0.0 0.0 0.0 0.0 0.0 0.0
-54075.9540892448 -2431.43370686314 -4816.51705854133 0.0 0.0 0.0 0.0 0.0 0.0
-54378.5089749554 -3137.39510685454 -1104.09419850982 0.0 0.0 0.0 0.0 0.0 0.0
-41385.0289648451 2431.23918319272 -1154.52001279492 0.0 0.0 0.0 0.0 0.0 0.0
-41082.4740791345 3137.20058318412 -4866.94287282643 0.0 0.0 0.0 0.0 0.0 0.0
-52548.7190108757 -2353.19940796327 -4764.26154984478 0.0 0.0 0.0 0.0 0.0 0.0
-52851.1811709627 -3058.94444816629 -1156.40709223443 0.0 0.0 0.0 0.0 0.0 0.0
-40223.6905693265 2352.83723824924 -1206.81745224893 0.0 0.0 0.0 0.0 0.0 0.0
-39921.2284092395 3058.58227845226 -4814.67190985928 0.0 0.0 0.0 0.0 0.0 0.0
-51021.3417534471 -2274.72755494532 -4711.97631235645 0.0 0.0 0.0 0.0 0.0 0.0
-51323.8015909264 -2980.46717573027 -1208.70010474078 0.0 0.0 0.0 0.0 0.0 0.0
-39062.3348642716 2274.44713569323 -1259.11007765399 0.0 0.0 0.0 0.0 0.0 0.0
-38759.8750267923 2980.18675647818 -4762.38628526966 0.0 0.0 0.0 0.0 0.0 0.0
-49493.8799227763 -2196.21503223737 -4659.68356433554 0.0 0.0 0.0 0.0 0.0 0.0
-49796.3595486347 -2902.00082590698 -1260.98703785741 0.0 0.0 0.0 0.0 0.0 0.0
-37900.9217059613 2196.04396381021 -1311.40030883381 0.0 0.0 0.0 0.0 0.0 0.0
-37598.4420801029 2901.82975747982 -4710.09683531194 0.0 0.0 0.0 0.0 0.0 0.0
-47966.3738622961 -2117.72124604757 -4607.38997226792 0.0 0.0 0.0 0.0 0.0 0.0
-48268.8735558087 -2823.55386424366 -1313.27199634358 0.0 0.0 0.0 0.0 0.0 0.0
-36739.4606400735 2117.62309964285 -1363.68861192901 0.0 0.0 0.0 0.0 0.0 0.0
-36436.9609465609 2823.45571783894 -4657.80658785335 0.0 0.0 0.0 0.0 0.0 0.0
-46438.8472536066 -2039.25687758562 -4555.09581201804 0.0 0.0 0.0 0.0 0.0 0.0
-46741.3633859254 -2745.1278529962 -1365.55459177264 0.0 0.0 0.0 0.0 0.0 0.0
-35577.9691150665 2039.18397737189 -1415.97394715911 0.0 0.0 0.0 0.0 0.0 0.0
-35275.4529827477 2745.05495278248 -4605.51516740451 0.0 0.0 0.0 0.0 0.0 0.0
-44911.3124632298 -1960.82031469809 -4502.79864247731 0.0 0.0 0.0 0.0 0.0 0.0
-45213.8433898324 -2666.72581010409 -1417.83194782658 0.0 0.0 0.0 0.0 0.0 0.0
-34416.4599585548 1960.72423187201 -1468.25376892701 0.0 0.0 0.0 0.0 0.0 0.0
-34113.9290319523 2666.62972727801 -4553.22046357774 0.0 0.0 0.0 0.0 0.0 0.0
-43383.7751975188 -1882.41087054111 -4450.49440777014 0.0 0.0 0.0 0.0 0.0 0.0
-43686.3226804264 -2588.35499732555 -1470.09910737376 0.0 0.0 0.0 0.0 0.0 0.0
-33254.9391290391 1882.23795326902 -1520.52368785836 0.0 0.0 0.0 0.0 0.0 0.0
-32952.3916461314 2588.18208005346 -4500.91898825474 0.0 0.0 0.0 0.0 0.0 0.0
-41856.2373684064 -1804.03272074555 -4398.17744268378 0.0 0.0 0.0 0.0 0.0 0.0
-42158.8066087612 -2510.02761490661 -1522.34869784081 0.0 0.0 0.0 0.0 0.0 0.0
-32093.4060018108 1803.71550235784 -1572.7769045666 0.0 0.0 0.0 0.0 0.0 0.0
-31790.836761456 2509.7103965189 -4448.60564940957 0.0 0.0 0.0 0.0 0.0 0.0
-40328.6984026787 -1725.69552658558 -4345.84012031925 0.0 0.0 0.0 0.0 0.0 0.0
-40631.2976518915 -2431.76044141523 -1574.57034108914 0.0 0.0 0.0 0.0 0.0 0.0
-30931.8534245861 1725.14422742994 -1625.00354929126 0.0 0.0 0.0 0.0 0.0 0.0
-30629.2541753734 2431.20914225958 -4396.27332852137 0.0 0.0 0.0 0.0 0.0 0.0
-38801.1554207428 -1647.41377092296 -4293.47258659003 0.0 0.0 0.0 0.0 0.0 0.0
-39103.795155925 -2353.57315301464 -1626.75019526723 0.0 0.0 0.0 0.0 0.0 0.0
-29770.2667862952 1646.51043396956 -1677.19015113092 0.0 0.0 0.0 0.0 0.0 0.0
-29467.627051113 2352.66981606124 -4343.91254245372 0.0 0.0 0.0 0.0 0.0 0.0
-37273.6025923647 -1569.20491148883 -4241.06301199079 0.0 0.0 0.0 0.0 0.0 0.0
-37576.2936992999 -2275.4841610042 -1678.87112613704 0.0 0.0 0.0 0.0 0.0 0.0
-28608.6220988117 1567.80366777644 -1729.31964395956 0.0 0.0 0.0 0.0 0.0 0.0
-28305.9309918766 2274.08291729181 -4291.51152981332 0.0 0.0 0.0 0.0 0.0 0.0
-35746.0298401623 -1491.08536423094 -4188.59897304417 0.0 0.0 0.0 0.0 0.0 0.0
-36048.779795849 -2197.50192749984 -1730.91430387744 0.0 0.0 0.0 0.0 0.0 0.0
-27446.8834537654 1489.02507625025 -1781.37262982522 0.0 0.0 0.0 0.0 0.0 0.0
-27144.1334980788 2195.44163951915 -4239.05729899194 0.0 0.0 0.0 0.0 0.0 0.0
-34218.4210115089 -1413.06244849695 -4136.07092863148 0.0 0.0 0.0 0.0 0.0 0.0
-34521.2265269278 -2119.60865114098 -1782.86352387898 0.0 0.0 0.0 0.0 0.0 0.0
-26285.000610294 1410.20245598777 -1833.33110978213 0.0 0.0 0.0 0.0 0.0 0.0
-25982.1950948752 2116.7486586318 -4186.53851453463 0.0 0.0 0.0 0.0 0.0 0.0
-32690.751721842 -1335.11944896136 -4083.47928268741 0.0 0.0 0.0 0.0 0.0 0.0
-32993.5856240266 -2041.73188739216 -1834.71428848311 0.0 0.0 0.0 0.0 0.0 0.0
-25122.9081443116 1331.41560391429 -1885.18660551388 0.0 0.0 0.0 0.0 0.0 0.0
-24820.0742421269 2038.02804234509 -4133.95159971818 0.0 0.0 0.0 0.0 0.0 0.0
-31162.9873354923 -1257.18976373458 -4030.84722794608 0.0 0.0 0.0 0.0 0.0 0.0
-31465.7766524532 -1963.6981699767 -1886.49068534962 0.0 0.0 0.0 0.0 0.0 0.0
-23960.5287533655 1252.836643918 -1936.95557150977 0.0 0.0 0.0 0.0 0.0 0.0
-23657.7394364046 1959.34505016012 -4081.31211410624 0.0 0.0 0.0 0.0 0.0 0.0
-29635.0820641746 -1179.11477500019 -3978.24241628162 0.0 0.0 0.0 0.0 0.0 0.0
-29937.6734576549 -1885.16135978739 -1938.27433526703 0.0 0.0 0.0 0.0 0.0 0.0
-22797.7851741038 1174.79076173449 -1988.7062341804 0.0 0.0 0.0 0.0 0.0 0.0
-22495.1937806236 1880.83734652169 -4028.67431519499 0.0 0.0 0.0 0.0 0.0 0.0
-28106.9809903666 -1100.5788738067 -3925.81138509715 0.0 0.0 0.0 0.0 0.0 0.0
-28409.0892166319 -1805.49806842567 -1990.25102318028 0.0 0.0 0.0 0.0 0.0 0.0
-21634.6279499228 1097.84247444964 -2040.60239422449 0.0 0.0 0.0 0.0 0.0 0.0
-21332.5197236575 1802.76166906861 -3976.16275614136 0.0 0.0 0.0 0.0 0.0 0.0
-26578.6279526309 -1021.01466956811 -3873.83130985229 0.0 0.0 0.0 0.0 0.0 0.0
-26879.7636851306 -1723.66471206754 -2042.78171678118 0.0 0.0 0.0 0.0 0.0 0.0
-20471.0901093818 1022.90967753912 -2092.97100553114 0.0 0.0 0.0 0.0 0.0 0.0
-20169.954376882 1725.55972003855 -3924.02059860225 0.0 0.0 0.0 0.0 0.0 0.0
-25049.9833724903 -939.47314950741 -3822.7834866254 0.0 0.0 0.0 0.0 0.0 0.0
-25349.3600116166 -1638.01864080194 -2096.50476812745 0.0 0.0 0.0 0.0 0.0 0.0
-19307.3844968737 951.39943694499 -2146.40087464848 0.0 0.0 0.0 0.0 0.0 0.0
-19008.0078577475 1649.94492823952 -3872.67959314644 0.0 0.0 0.0 0.0 0.0 0.0
-23521.0562906279 -854.459903235371 -3773.4509481618 0.0 0.0 0.0 0.0 0.0 0.0
-23817.4841027254 -1546.12479812957 -2152.47378212273 0.0 0.0 0.0 0.0 0.0 0.0
-18144.0640215887 885.340950929027 -2201.87841747232 0.0 0.0 0.0 0.0 0.0 0.0
-17847.6362094912 1577.00584582323 -3822.85558351138 0.0 0.0 0.0 0.0 0.0 0.0
-21991.9516880915 -763.753763286481 -3727.0370421481 0.0 0.0 0.0 0.0 0.0 0.0
-22283.746560223 -1444.60846492662 -2212.32849190981 0.0 0.0 0.0 0.0 0.0 0.0
-16982.266634389 827.454360430813 -2260.96097059839 0.0 0.0 0.0 0.0 0.0 0.0
-16690.4717622575 1508.30906207096 -3775.66952083668 0.0 0.0 0.0 0.0 0.0 0.0
-20462.9225599836 -664.255321966866 -3685.28988990996 0.0 0.0 0.0 0.0 0.0 0.0
-20747.8933441332 -1329.1871516493 -2278.48005864942 0.0 0.0 0.0 0.0 0.0 0.0
-15824.0589347213 781.027595241516 -2325.97518934102 0.0 0.0 0.0 0.0 0.0 0.0
-15539.0881505717 1445.95942492395 -3732.78502060157 0.0 0.0 0.0 0.0 0.0 0.0
-18934.3873377137 -551.970291755235 -3650.59525720814 0.0 0.0 0.0 0.0 0.0 0.0
-19210.0302689261 -1195.13713125079 -2354.26144111001 0.0 0.0 0.0 0.0 0.0 0.0
-14672.8619125826 749.363592896406 -2400.20192964541 0.0 0.0 0.0 0.0 0.0 0.0
-14397.2189813703 1392.53043239196 -3696.53574574354 0.0 0.0 0.0 0.0 0.0 0.0
-17406.8151226072 -422.330639971266 -3625.96166124073 0.0 0.0 0.0 0.0 0.0 0.0
-17670.9452868234 -1038.63435647581 -2443.93899903289 0.0 0.0 0.0 0.0 0.0 0.0
-13533.865969096 734.399636835944 -2487.96069306893 0.0 0.0 0.0 0.0 0.0 0.0
-13269.7358048798 1350.70335334049 -3669.98335527677 0.0 0.0 0.0 0.0 0.0 0.0
-15880.286469653 -271.209149117064 -3614.75885146866 0.0 0.0 0.0 0.0 0.0 0.0
-16132.4702962414 -859.638077823292 -2552.39126021468 0.0 0.0 0.0 0.0 0.0 0.0
-12414.1837268525 733.913309057682 -2594.42189797941 0.0 0.0 0.0 0.0 0.0 0.0
-12161.9999002641 1322.34223776391 -3656.78948923339 0.0 0.0 0.0 0.0 0.0 0.0
-14353.4299321817 -97.1922075119719 -3619.9758077137 0.0 0.0 0.0 0.0 0.0 0.0
-14597.6976168496 -667.150138403854 -2684.12161747513 0.0 0.0 0.0 0.0 0.0 0.0
-11322.2079510146 736.631146954001 -2724.83289825312 0.0 0.0 0.0 0.0 0.0 0.0
-11077.9402663467 1306.58907784588 -3660.68708849169 0.0 0.0 0.0 0.0 0.0 0.0
-12821.4277270992 94.1083857748981 -3642.63466641739 0.0 0.0 0.0 0.0 0.0 0.0
-13070.6729483941 -487.463797246589 -2841.08313935097 0.0 0.0 0.0 0.0 0.0 0.0
-10265.2426036616 714.863493353052 -2882.62400956679 0.0 0.0 0.0 0.0 0.0 0.0
-10015.9973823667 1296.43567637454 -3684.17553663322 0.0 0.0 0.0 0.0 0.0 0.0
-11273.160153133 282.898829293896 -3678.86093127998 0.0 0.0 0.0 0.0 0.0 0.0
-11554.9967129297 -374.719810231841 -3018.6184728433 0.0 0.0 0.0 0.0 0.0 0.0
-9244.14810840136 615.64387742318 -3065.59123280942 0.0 0.0 0.0 0.0 0.0 0.0
-8962.31154860461 1273.26251694892 -3725.8336912461 0.0 0.0 0.0 0.0 0.0 0.0
-9688.77098833002 425.091214596611 -3715.09666906834 0.0 0.0 0.0 0.0 0.0 0.0
-10050.7842392346 -419.606370847344 -3198.90609994207 0.0 0.0 0.0 0.0 0.0 0.0
-8244.11724729263 354.67948284206 -3259.24164175949 0.0 0.0 0.0 0.0 0.0 0.0
-7882.10399638808 1199.37706828601 -3775.43221088576 0.0 0.0 0.0 0.0 0.0 0.0
-8041.31667508128 441.59401378978 -3721.41442881549 0.0 0.0 0.0 0.0 0.0 0.0
-8550.00403832052 -745.343167101773 -3342.27746553749 0.0 0.0 0.0 0.0 0.0 0.0
-7223.02466684754 -176.637722184783 -3427.05869274403 0.0 0.0 0.0 0.0 0.0 0.0
-6714.33730360831 1010.29945870677 -3806.19565602203 0.0 0.0 0.0 0.0 0.0 0.0
-6309.23467443666 214.986560277024 -3644.56166688821 0.0 0.0 0.0 0.0 0.0 0.0
-7031.64824560748 -1470.64510578823 -3379.64318428978 0.0 0.0 0.0 0.0 0.0 0.0
-6104.43355651298 -1073.26738189059 -3500.04544615158 0.0 0.0 0.0 0.0 0.0 0.0
-5382.01998534216 612.364284174668 -3764.96392875001 0.0 0.0 0.0 0.0 0.0 0.0
-4508.62872470267 -389.351025400455 -3405.9559207014 0.0 0.0 0.0 0.0 0.0 0.0
-5461.31983586384 -2612.29695144318 -3214.34586644482 0.0 0.0 0.0 0.0 0.0 0.0
-4790.6846459658 -2324.8818700583 -3373.12771830501 0.0 0.0 0.0 0.0 0.0 0.0
-3837.99353480464 -101.935944015581 -3564.73777256159 0.0 0.0 0.0 0.0 0.0 0.0
-2753.57694671369 -1451.83571323597 -2913.95407762095 0.0 0.0 0.0 0.0 0.0 0.0
-3807.69638220714 -3911.44772938736 -2744.90785759952 0.0 0.0 0.0 0.0 0.0 0.0
-3216.03461213212 -3657.87839935521 -2920.59443018176 0.0 0.0 0.0 0.0 0.0 0.0
-2161.91517663867 -1198.26638320382 -3089.64065020319 0.0 0.0 0.0 0.0 0.0 0.0
-1343.4294095853 -2855.33331254942 -2096.24389586485 0.0 0.0 0.0 0.0 0.0 0.0
-2102.92130483078 -4627.48106812221 -1908.27672554935 0.0 0.0 0.0 0.0 0.0 0.0
-1445.03620872653 -4345.53031264897 -2034.85870809026 0.0 0.0 0.0 0.0 0.0 0.0
-685.544313481052 -2573.38255707618 -2222.82587840576 0.0 0.0 0.0 0.0 0.0 0.0
-846.710807893729 -4089.10514086348 -930.944517334784 0.0 0.0 0.0 0.0 0.0 0.0
-577.966182800499 -3462.03434897928 -700.149728450723 0.0 0.0 0.0 0.0 0.0 0.0
229.815578293713 -3115.84216565318 -655.358957601851 0.0 0.0 0.0 0.0 0.0 0.0
-38.9290467995168 -3742.91295753739 -886.153746485912 0.0 0.0 0.0 0.0 0.0 0.0
-57197.4475148637 -24513.1917920844 -2077.51816936111 0.0 0.0 0.0 0.0 0.0 0.0
-52049.3507494272 -12500.966006066 2107.72420606296 0.0 0.0 0.0 0.0 0.0 0.0
-37401.0024354429 -6223.10244292985 2965.74033363571 0.0 0.0 0.0 0.0 0.0 0.0
-42549.0992008794 -18235.3282289483 -1219.50204178836 0.0 0.0 0.0 0.0 0.0 0.0
-60092.1069714157 -15947.8615297753 -5142.94376436957 0.0 0.0 0.0 0.0 0.0 0.0
-56353.2220453474 -7223.79670228249 -331.040740052086 0.0 0.0 0.0 0.0 0.0 0.0
-39511.5614602362 -5.94216580626016 292.106747625974 0.0 0.0 0.0 0.0 0.0 0.0
-43250.4463863045 -8730.00699329911 -4519.79627669151 0.0 0.0 0.0 0.0 0.0 0.0
-60285.5837295566 -8909.09456694358 -6060.38284043869 0.0 0.0 0.0 0.0 0.0 0.0
-58506.6792598693 -4758.31747100655 -1023.6322088857 0.0 0.0 0.0 0.0 0.0 0.0
-40878.0520494338 2796.80847632292 -727.148130604487 0.0 0.0 0.0 0.0 0.0 0.0
-42656.9565191211 -1353.9686196141 -5763.89876215747 0.0 0.0 0.0 0.0 0.0 0.0
-58834.5095221804 -4898.81615485416 -6051.98920702436 0.0 0.0 0.0 0.0 0.0 0.0
-58395.251829044 -3873.88153753602 -1076.98501823081 0.0 0.0 0.0 0.0 0.0 0.0
-40982.7371682666 3588.6247456543 -1003.77540270809 0.0 0.0 0.0 0.0 0.0 0.0
-41421.994861403 2563.69012833616 -5978.77959150164 0.0 0.0 0.0 0.0 0.0 0.0
-56939.0978759076 -3249.81555762043 -5848.57538004391 0.0 0.0 0.0 0.0 0.0 0.0
-57101.4254473722 -3628.57989103779 -1023.81894264517 0.0 0.0 0.0 0.0 0.0 0.0
-40214.7779164767 3608.55476506031 -1050.87353788927 0.0 0.0 0.0 0.0 0.0 0.0
-40052.4503450121 3987.31909847767 -5875.62997528801 0.0 0.0 0.0 0.0 0.0 0.0
-55169.8264228453 -2800.7517376691 -5684.51667660808 0.0 0.0 0.0 0.0 0.0 0.0
-55504.0246351698 -3580.54756642631 -1002.91240060103 0.0 0.0 0.0 0.0 0.0 0.0
-39118.4096691451 3441.85884758426 -1058.61210265512 0.0 0.0 0.0 0.0 0.0 0.0
-38784.2114568206 4221.65467634147 -5740.21637866216 0.0 0.0 0.0 0.0 0.0 0.0
-53620.99120429 -2773.53323890641 -5576.97408991689 0.0 0.0 0.0 0.0 0.0 0.0
-53961.338653786 -3567.67728773034 -1018.04898950028 0.0 0.0 0.0 0.0 0.0 0.0
-38005.1008023279 3270.71036289458 -1074.77356441627 0.0 0.0 0.0 0.0 0.0 0.0
-37664.7533528319 4064.8544117185 -5633.69866483288 0.0 0.0 0.0 0.0 0.0 0.0
-52228.2455579504 -2824.9231038008 -5500.8818828116 0.0 0.0 0.0 0.0 0.0 0.0
-52535.6284978134 -3542.14996348107 -1053.38254504661 0.0 0.0 0.0 0.0 0.0 0.0
-36969.3808156359 3129.09904316642 -1104.61303502377 0.0 0.0 0.0 0.0 0.0 0.0
-36661.997875773 3846.32590284668 -5552.11237278876 0.0 0.0 0.0 0.0 0.0 0.0
-50922.9952611394 -2851.02143347795 -5439.00103376315 0.0 0.0 0.0 0.0 0.0 0.0
-51199.7376396523 -3496.75365000802 -1098.47172333644 0.0 0.0 0.0 0.0 0.0 0.0
-36007.8850531588 3014.04031563205 -1144.59545308858 0.0 0.0 0.0 0.0 0.0 0.0
-35731.142674646 3659.77253216212 -5485.1247635153 0.0 0.0 0.0 0.0 0.0 0.0
-49661.8804474763 -2837.6719962183 -5383.21235810493 0.0 0.0 0.0 0.0 0.0 0.0
-49918.4064271036 -3436.23261534868 -1147.98163755754 0.0 0.0 0.0 0.0 0.0 0.0
-35095.0989051878 2916.6134654724 -1190.73596749542 0.0 0.0 0.0 0.0 0.0 0.0
-34838.5729255605 3515.17408460278 -5425.96668804281 0.0 0.0 0.0 0.0 0.0 0.0
-48421.071520481 -2794.51765536756 -5329.87076719133 0.0 0.0 0.0 0.0 0.0 0.0
-48666.2341899775 -3366.56388419274 -1199.35118593981 0.0 0.0 0.0 0.0 0.0 0.0
-34209.4156555972 2829.21548768454 -1240.2116308559 0.0 0.0 0.0 0.0 0.0 0.0
-33964.2529861007 3401.26171650971 -5370.73121210741 0.0 0.0 0.0 0.0 0.0 0.0
-47188.692114193 -2733.33156599936 -5277.40642892962 0.0 0.0 0.0 0.0 0.0 0.0
-47428.1325715707 -3292.02596654744 -1251.42963066771 0.0 0.0 0.0 0.0 0.0 0.0
-33337.213777654 2746.93923084543 -1291.336373564 0.0 0.0 0.0 0.0 0.0 0.0
-33097.7733202763 3305.63363139351 -5317.31317182591 0.0 0.0 0.0 0.0 0.0 0.0
-45959.381538531 -2662.56123810183 -5225.19709796244 0.0 0.0 0.0 0.0 0.0 0.0
-46196.2020244233 -3215.14237185063 -1303.73526432639 0.0 0.0 0.0 0.0 0.0 0.0
-32471.0856066971 2667.05037860345 -1343.20534530845 0.0 0.0 0.0 0.0 0.0 0.0
-32234.2651208048 3219.63151235225 -5264.6671789445 0.0 0.0 0.0 0.0 0.0 0.0
-44730.9441309026 -2587.17470319892 -5173.02107988579 0.0 0.0 0.0 0.0 0.0 0.0
-44966.6832808332 -3137.23271970353 -1356.08727536728 0.0 0.0 0.0 0.0 0.0 0.0
-31607.4149650184 2588.16798707423 -1395.37713368904 0.0 0.0 0.0 0.0 0.0 0.0
-31371.6758150879 3138.22600357884 -5212.31093820755 0.0 0.0 0.0 0.0 0.0 0.0
-43502.6044927683 -2509.77038196143 -5120.81774979493 0.0 0.0 0.0 0.0 0.0 0.0
-43737.9556837523 -3058.92316092419 -1408.429947419 0.0 0.0 0.0 0.0 0.0 0.0
-30744.5983754366 2509.6585426397 -1447.65514591634 0.0 0.0 0.0 0.0 0.0 0.0
-30509.2471844526 3058.81132160246 -5160.04294829227 0.0 0.0 0.0 0.0 0.0 0.0
-42274.1551281467 -2431.58006566465 -5068.58184448336 0.0 0.0 0.0 0.0 0.0 0.0
-42509.3995368247 -2980.48368591324 -1460.75354972933 0.0 0.0 0.0 0.0 0.0 0.0
-29882.0005051856 2431.2587562178 -1499.96095117566 0.0 0.0 0.0 0.0 0.0 0.0
-29646.7560965077 2980.16237646639 -5107.78924592969 0.0 0.0 0.0 0.0 0.0 0.0
-41045.5839942905 -2353.1341676843 -5016.32238275006 0.0 0.0 0.0 0.0 0.0 0.0
-41280.8199861366 -2902.01814865857 -1513.06179405132 0.0 0.0 0.0 0.0 0.0 0.0
-29019.407925691 2352.87273438954 -1552.26779269234 0.0 0.0 0.0 0.0 0.0 0.0
-28784.1719338449 2901.75671536381 -5055.52838139108 0.0 0.0 0.0 0.0 0.0 0.0
-39816.9272019679 -2274.63552687198 -4964.04855170927 0.0 0.0 0.0 0.0 0.0 0.0
-40052.1809024235 -2823.56082793497 -1565.35999379857 0.0 0.0 0.0 0.0 0.0 0.0
-28156.770949736 2274.47200893108 -1604.5689438745 0.0 0.0 0.0 0.0 0.0 0.0
-27921.5172492805 2823.39730999407 -5003.2575017852 0.0 0.0 0.0 0.0 0.0 0.0
-38588.2201430231 -2196.14907390625 -4911.76627281811 0.0 0.0 0.0 0.0 0.0 0.0
-38823.4939154751 -2745.12120962744 -1617.65161700001 0.0 0.0 0.0 0.0 0.0 0.0
-27294.0926201117 2196.0507740997 -1656.86391240867 0.0 0.0 0.0 0.0 0.0 0.0
-27058.8188476598 2745.0229098209 -4950.97856822677 0.0 0.0 0.0 0.0 0.0 0.0
-37359.4862581493 -2117.68935648782 -4859.47817247551 0.0 0.0 0.0 0.0 0.0 0.0
-37594.7778557252 -2666.70308416487 -1669.9377166808 0.0 0.0 0.0 0.0 0.0 0.0
-26431.3862604437 2117.60759952719 -1709.15298294344 0.0 0.0 0.0 0.0 0.0 0.0
-26196.0946628678 2666.62132720425 -4898.69343873816 0.0 0.0 0.0 0.0 0.0 0.0
-36130.7377726109 -2039.25733425876 -4807.18423309942 0.0 0.0 0.0 0.0 0.0 0.0
-36366.0469292384 -2588.31203305633 -1722.21703588331 0.0 0.0 0.0 0.0 0.0 0.0
-25568.661738982 2039.13876276784 -1761.43522865456 0.0 0.0 0.0 0.0 0.0 0.0
-25333.3525823545 2588.19346156541 -4846.40242587068 0.0 0.0 0.0 0.0 0.0 0.0
-34901.978616815 -1960.85418487488 -4754.88225521104 0.0 0.0 0.0 0.0 0.0 0.0
-35137.308882969 -2509.95813923414 -1774.48603716661 0.0 0.0 0.0 0.0 0.0 0.0
-24705.9221198135 1960.63618783252 -1813.70774819227 0.0 0.0 0.0 0.0 0.0 0.0
-24470.5918536595 2509.74014219177 -4794.1039662367 0.0 0.0 0.0 0.0 0.0 0.0
-33673.2065153859 -1882.48569598426 -4702.56799871782 0.0 0.0 0.0 0.0 0.0 0.0
-33908.5655410045 -2431.65675576081 -1826.73870749576 0.0 0.0 0.0 0.0 0.0 0.0
-23843.1630217272 1882.08718107229 -1865.96521176551 0.0 0.0 0.0 0.0 0.0 0.0
-23607.8039961087 2431.25824084884 -4741.79450298757 0.0 0.0 0.0 0.0 0.0 0.0
-32444.4137145671 -1804.16311585906 -4650.23513145052 0.0 0.0 0.0 0.0 0.0 0.0
-32679.8129720916 -2353.42805008297 -1878.96624005112 0.0 0.0 0.0 0.0 0.0 0.0
-22980.3718521937 1803.47528701614 -1918.19944963854 0.0 0.0 0.0 0.0 0.0 0.0
-22744.9725946692 2352.74022124004 -4689.46834103794 0.0 0.0 0.0 0.0 0.0 0.0
-31215.5865986186 -1725.90246145167 -4597.87523321358 0.0 0.0 0.0 0.0 0.0 0.0
-31451.0404595295 -2275.29480357724 -1931.15685045926 0.0 0.0 0.0 0.0 0.0 0.0
-22117.5261198894 1724.78277055425 -1970.39916061109 0.0 0.0 0.0 0.0 0.0 0.0
-21882.0722589784 2274.17511267982 -4637.11754336541 0.0 0.0 0.0 0.0 0.0 0.0
-29986.7046651109 -1647.72232025498 -4545.47822914166 0.0 0.0 0.0 0.0 0.0 0.0
-30222.2280940737 -2197.27698783483 -1983.29617221463 0.0 0.0 0.0 0.0 0.0 0.0
-21254.5908948291 1645.99609755571 -2022.55007704177 0.0 0.0 0.0 0.0 0.0 0.0
-21019.0674658663 2195.55076513556 -4584.73213396879 0.0 0.0 0.0 0.0 0.0 0.0
-28757.7394933407 -1569.63901609212 -4493.03382724702 0.0 0.0 0.0 0.0 0.0 0.0
-28993.3430351317 -2119.38061360435 -2035.36896605956 0.0 0.0 0.0 0.0 0.0 0.0
-20391.5160209756 1567.11667817683 -2074.63622302472 0.0 0.0 0.0 0.0 0.0 0.0
-20155.9124791846 2116.85827568906 -4532.30108421217 0.0 0.0 0.0 0.0 0.0 0.0
-27528.6546762414 -1491.65703122281 -4440.53485076897 0.0 0.0 0.0 0.0 0.0 0.0
-27764.3346963545 -2041.57707815336 -2087.36332082268 0.0 0.0 0.0 0.0 0.0 0.0
-19528.2343415425 1488.18021676608 -2126.64332417486 0.0 0.0 0.0 0.0 0.0 0.0
-19292.5543214294 2038.10026369664 -4479.81485412115 0.0 0.0 0.0 0.0 0.0 0.0
-26299.4083281874 -1413.75149179604 -4387.98381075873 0.0 0.0 0.0 0.0 0.0 0.0
-26535.1295513272 -1963.76767912206 -2139.27915694087 0.0 0.0 0.0 0.0 0.0 0.0
-18664.6632629647 1409.28930160472 -2178.56602746416 0.0 0.0 0.0 0.0 0.0 0.0
-18428.9420398249 1959.30548893074 -4427.27068128201 0.0 0.0 0.0 0.0 0.0 0.0
-25069.9608434202 -1335.83823287623 -4335.40466553323 0.0 0.0 0.0 0.0 0.0 0.0
-25305.627134952 -1885.7262464503 -2191.14368714618 0.0 0.0 0.0 0.0 0.0 0.0
-17800.7137105973 1330.66522113028 -2230.42140240147 0.0 0.0 0.0 0.0 0.0 0.0
-17565.0474190655 1880.55323470435 -4374.68238078852 0.0 0.0 0.0 0.0 0.0 0.0
-23840.29216221 -1257.7255438466 -4282.86243083139 0.0 0.0 0.0 0.0 0.0 0.0
-24075.7003888554 -1807.01140601912 -2243.03751264105 0.0 0.0 0.0 0.0 0.0 0.0
-16936.3131751892 1252.7259712664 -2282.27221708194 0.0 0.0 0.0 0.0 0.0 0.0
-16700.9049485438 1802.01183343891 -4322.09713527228 0.0 0.0 0.0 0.0 0.0 0.0
-22610.4349384091 -1179.040498685 -4230.49403460201 0.0 0.0 0.0 0.0 0.0 0.0
-22845.2060660225 -1726.83979644953 -2295.13611345561 0.0 0.0 0.0 0.0 0.0 0.0
-16071.4533420101 1176.19708527007 -2334.26463472451 0.0 0.0 0.0 0.0 0.0 0.0
-15836.6822143967 1723.9963830346 -4269.62255587091 0.0 0.0 0.0 0.0 0.0 0.0
-21380.5324929817 -1099.12255086062 -4178.55431783337 0.0 0.0 0.0 0.0 0.0 0.0
-21614.0147804056 -1643.91455484978 -2347.77233115499 0.0 0.0 0.0 0.0 0.0 0.0
-15206.2778270313 1102.25842516779 -2386.68604572565 0.0 0.0 0.0 0.0 0.0 0.0
-14972.7955396074 1647.05042915695 -4217.46803240402 0.0 0.0 0.0 0.0 0.0 0.0
-20150.9325287713 -1016.87930414937 -4127.48091877029 0.0 0.0 0.0 0.0 0.0 0.0
-20382.0755928715 -1556.21312038309 -2401.52545826373 0.0 0.0 0.0 0.0 0.0 0.0
-14341.2314810985 1032.72007037674 -2440.04930228043 0.0 0.0 0.0 0.0 0.0 0.0
-14110.0884169984 1572.05388661046 -4166.00476278698 0.0 0.0 0.0 0.0 0.0 0.0
-18922.3273054889 -930.606711504852 -4077.98016712663 0.0 0.0 0.0 0.0 0.0 0.0
-19149.5362895263 -1460.76100759217 -2457.34072162543 0.0 0.0 0.0 0.0 0.0 0.0
-13477.2982302721 970.198160659642 -2495.20888563166 0.0 0.0 0.0 0.0 0.0 0.0
-13250.0892462347 1500.35245674696 -4115.84833113287 0.0 0.0 0.0 0.0 0.0 0.0
-17695.9440301952 -837.792896450235 -4031.13182498979 0.0 0.0 0.0 0.0 0.0 0.0
-17916.9457614552 -1353.46360272357 -2516.67762961645 0.0 0.0 0.0 0.0 0.0 0.0
-12616.3560776485 918.217690336449 -2553.51125149312 0.0 0.0 0.0 0.0 0.0 0.0
-12395.3543463885 1433.88839660978 -4067.96544686646 0.0 0.0 0.0 0.0 0.0 0.0
-16473.7672776378 -734.958538230426 -3988.50167961962 0.0 0.0 0.0 0.0 0.0 0.0
-16685.5640138055 -1229.15092262169 -2581.67430685719 0.0 0.0 0.0 0.0 0.0 0.0
-11761.668209137 881.090136521955 -2616.97376288514 0.0 0.0 0.0 0.0 0.0 0.0
-11549.8714729693 1375.28252091322 -4023.80113564757 0.0 0.0 0.0 0.0 0.0 0.0
-15258.7240604545 -617.64808547125 -3952.23486325971 0.0 0.0 0.0 0.0 0.0 0.0
-15457.7874952981 -1082.12943343959 -2655.29366350407 0.0 0.0 0.0 0.0 0.0 0.0
-10918.4932961533 863.282366193874 -2688.47090264466 0.0 0.0 0.0 0.0 0.0 0.0
-10719.4298613097 1327.76371416222 -3985.41210240031 0.0 0.0 0.0 0.0 0.0 0.0
-14054.6613875952 -480.789672995508 -3925.07508913543 0.0 0.0 0.0 0.0 0.0 0.0
-14237.6430422666 -907.746867228823 -2741.37965278194 0.0 0.0 0.0 0.0 0.0 0.0
-10094.7090150294 867.79628730141 -2771.87659522718 0.0 0.0 0.0 0.0 0.0 0.0
-9911.727360358 1294.75348153473 -3955.57203158067 0.0 0.0 0.0 0.0 0.0 0.0
-12865.7769734347 -319.804266300858 -3910.2084489464 0.0 0.0 0.0 0.0 0.0 0.0
-13031.1834255042 -705.75265446289 -2844.48623500624 0.0 0.0 0.0 0.0 0.0 0.0
-9301.15567671361 892.830666447344 -2872.05397701782 0.0 0.0 0.0 0.0 0.0 0.0
-9135.74922464417 1278.77905460938 -3937.77619095797 0.0 0.0 0.0 0.0 0.0 0.0
-11694.9399649984 -133.076885674689 -3910.75142551852 0.0 0.0 0.0 0.0 0.0 0.0
-11846.4007645601 -486.48541798552 -2969.22524821292 0.0 0.0 0.0 0.0 0.0 0.0
-8551.05914399053 925.803847972883 -2994.46871480655 0.0 0.0 0.0 0.0 0.0 0.0
-8399.59834442875 1279.21238028371 -3935.99489211215 0.0 0.0 0.0 0.0 0.0 0.0
-10540.1901959122 73.3191114350184 -3928.56788659301 0.0 0.0 0.0 0.0 0.0 0.0
-10691.9638189355 -280.819342285965 -3118.67486466286 0.0 0.0 0.0 0.0 0.0 0.0
-7857.33824217995 934.020190609269 -3143.97046850007 0.0 0.0 0.0 0.0 0.0 0.0
-7705.56461915667 1288.15864433025 -3953.86349043023 0.0 0.0 0.0 0.0 0.0 0.0
-9389.03276387848 277.5796813099 -3961.88454634217 0.0 0.0 0.0 0.0 0.0 0.0
-9573.80056680279 -153.545192180163 -3291.07496510657 0.0 0.0 0.0 0.0 0.0 0.0
-7225.96703247817 852.669179673245 -3321.86959892729 0.0 0.0 0.0 0.0 0.0 0.0
-7041.19922955386 1283.79405316331 -3992.67918016289 0.0 0.0 0.0 0.0 0.0 0.0
-8211.75645478951 430.187998682672 -4000.91594318291 0.0 0.0 0.0 0.0 0.0 0.0
-8488.65769103539 -215.914885891054 -3473.73931423213 0.0 0.0 0.0 0.0 0.0 0.0
-6643.53948970767 574.850057535112 -3519.88952027311 0.0 0.0 0.0 0.0 0.0 0.0
-6366.63825346179 1220.95294210884 -4047.06614922389 0.0 0.0 0.0 0.0 0.0 0.0
-6958.87774735107 439.705089973656 -4020.69332849466 0.0 0.0 0.0 0.0 0.0 0.0
-7414.98540069556 -624.546101163487 -3633.43187386135 0.0 0.0 0.0 0.0 0.0 0.0
-6059.57030947897 -43.6539192135201 -3709.44981608544 0.0 0.0 0.0 0.0 0.0 0.0
-5603.46265613448 1020.59727192362 -4096.71127071875 0.0 0.0 0.0 0.0 0.0 0.0
-5573.98071919017 164.455905195964 -3971.33710986733 0.0 0.0 0.0 0.0 0.0 0.0
-6304.80260370504 -1540.79515867207 -3704.69354411267 0.0 0.0 0.0 0.0 0.0 0.0
-5371.55012356371 -1140.82981004007 -3826.49719153181 0.0 0.0 0.0 0.0 0.0 0.0
-4640.72823904884 564.421253827966 -4093.14075728648 0.0 0.0 0.0 0.0 0.0 0.0
-4038.3625819967 -569.463720797068 -3769.38587052268 0.0 0.0 0.0 0.0 0.0 0.0
-5086.51891105895 -3015.16182194231 -3582.9678716928 0.0 0.0 0.0 0.0 0.0 0.0
-4434.05591515438 -2735.5348236975 -3757.66059320317 0.0 0.0 0.0 0.0 0.0 0.0
-3385.89958609214 -289.836722552254 -3944.07859203305 0.0 0.0 0.0 0.0 0.0 0.0
-2457.74944173182 -1888.54633508783 -3299.48080359098 0.0 0.0 0.0 0.0 0.0 0.0
-3697.48384135436 -4781.25993420709 -3135.58663184157 0.0 0.0 0.0 0.0 0.0 0.0
-3123.85424023142 -4535.41867658297 -3342.20903177866 0.0 0.0 0.0 0.0 0.0 0.0
-1884.11984060888 -1642.70507746371 -3506.10320352807 0.0 0.0 0.0 0.0 0.0 0.0
-1166.99354270329 -3696.76409192806 -2437.81808006558 0.0 0.0 0.0 0.0 0.0 0.0
-2169.52714439726 -6036.00916254733 -2239.46037428411 0.0 0.0 0.0 0.0 0.0 0.0
-1475.27517416214 -5738.47260387514 -2406.54930789978 0.0 0.0 0.0 0.0 0.0 0.0
-472.74157246817 -3399.22753325587 -2604.90701368124 0.0 0.0 0.0 0.0 0.0 0.0
-763.419982470246 -5433.39180743576 -1090.75541267976 0.0 0.0 0.0 0.0 0.0 0.0
-769.214128216007 -5446.91148084253 -820.038813520184 0.0 0.0 0.0 0.0 0.0 0.0
178.293968842511 -5040.83658210317 -821.004504477811 0.0 0.0 0.0 0.0 0.0 0.0
184.088114588272 -5027.31690869639 -1091.72110363739 0.0 0.0 0.0 0.0 0.0 0.0
-42549.0992008794 -18235.3282289483 -1219.50204178836 0.0 0.0 0.0 0.0 0.0 0.0
-39052.919445284 -10077.5754658923 2876.44187772288 0.0 0.0 0.0 0.0 0.0 0.0
-24717.1157269946 -3933.65958662547 3459.13850365545 0.0 0.0 0.0 0.0 0.0 0.0
-28213.2954825901 -12091.4123496815 -636.805415855795 0.0 0.0 0.0 0.0 0.0 0.0
-44902.3633961456 -12584.4800162616 -4609.09473260434 0.0 0.0 0.0 0.0 0.0 0.0
-42256.2321986036 -6410.17388866369 69.0558405299736 0.0 0.0 0.0 0.0 0.0 0.0
-25882.7051926336 607.05197103777 510.077706786968 0.0 0.0 0.0 0.0 0.0 0.0
-28528.8363901755 -5567.25415656014 -4168.07286634734 0.0 0.0 0.0 0.0 0.0 0.0
-45401.6272574886 -7758.20034247153 -5986.94966925347 0.0 0.0 0.0 0.0 0.0 0.0
-44035.9105427621 -4571.52800810961 -1030.41830840989 0.0 0.0 0.0 0.0 0.0 0.0
-26688.0507798095 2863.26903315577 -802.798855955465 0.0 0.0 0.0 0.0 0.0 0.0
-28053.7674945361 -323.403301206155 -5759.33021679905 0.0 0.0 0.0 0.0 0.0 0.0
-44579.8533547312 -4804.64635609637 -6282.04976930704 0.0 0.0 0.0 0.0 0.0 0.0
-44174.0582167277 -3857.7910340882 -1311.53737118833 0.0 0.0 0.0 0.0 0.0 0.0
-26777.2648233122 3597.97756308987 -1243.90484818774 0.0 0.0 0.0 0.0 0.0 0.0
-27183.0599613157 2651.12224108169 -6214.41724630645 0.0 0.0 0.0 0.0 0.0 0.0
-43243.7713934731 -3459.09668126482 -6183.39194376825 0.0 0.0 0.0 0.0 0.0 0.0
-43318.36823055 -3633.15596777751 -1325.22793071028 0.0 0.0 0.0 0.0 0.0 0.0
-26314.7941848471 3654.09005180944 -1337.66073688976 0.0 0.0 0.0 0.0 0.0 0.0
-26240.1973477703 3828.14933832213 -6195.82474994773 0.0 0.0 0.0 0.0 0.0 0.0
-41887.801770894 -3020.05605649636 -6014.57077148317 0.0 0.0 0.0 0.0 0.0 0.0
-42121.8545966026 -3566.17931648313 -1297.68621498926 0.0 0.0 0.0 0.0 0.0 0.0
-25612.7586488739 3509.14751825773 -1336.69501927403 0.0 0.0 0.0 0.0 0.0 0.0
-25378.7058231653 4055.27077824451 -6053.57957576794 0.0 0.0 0.0 0.0 0.0 0.0
-40668.1982802893 -2943.18375234889 -5872.77277716703 0.0 0.0 0.0 0.0 0.0 0.0
-40919.3964683153 -3529.31285774277 -1289.85639799308 0.0 0.0 0.0 0.0 0.0 0.0
-24879.1891412065 3345.06171101815 -1331.72276266407 0.0 0.0 0.0 0.0 0.0 0.0
-24627.9909531805 3931.19081641203 -5914.63914183802 0.0 0.0 0.0 0.0 0.0 0.0
-39576.2935417604 -2953.69731779066 -5767.19520636556 0.0 0.0 0.0 0.0 0.0 0.0
-39804.1942169244 -3485.46555983994 -1306.31211279137 0.0 0.0 0.0 0.0 0.0 0.0
-24191.1033894147 3205.85908052136 -1344.29555865203 0.0 0.0 0.0 0.0 0.0 0.0
-23963.2027142507 3737.62732257063 -5805.17865222623 0.0 0.0 0.0 0.0 0.0 0.0
-38565.9560759344 -2954.79207084424 -5686.8238412829 0.0 0.0 0.0 0.0 0.0 0.0
-38769.1499381109 -3428.91108258953 -1339.65762041115 0.0 0.0 0.0 0.0 0.0 0.0
-23554.0681650598 3091.8382487181 -1373.52326410724 0.0 0.0 0.0 0.0 0.0 0.0
-23350.8743028833 3565.95726046339 -5720.68948497899 0.0 0.0 0.0 0.0 0.0 0.0
-37599.8378105126 -2927.7773136188 -5621.02885536537 0.0 0.0 0.0 0.0 0.0 0.0
-37786.1356667312 -3362.47231146227 -1382.82529884082 0.0 0.0 0.0 0.0 0.0 0.0
-22952.4232188953 2994.83302332455 -1413.87494154393 0.0 0.0 0.0 0.0 0.0 0.0
-22766.1253626766 3429.52802116803 -5652.07849806848 0.0 0.0 0.0 0.0 0.0 0.0
-36655.2897476441 -2877.82406042496 -5562.82054345281 0.0 0.0 0.0 0.0 0.0 0.0
-36831.9226434982 -3289.96748408438 -1431.11253412241 0.0 0.0 0.0 0.0 0.0 0.0
-22370.9446108418 2907.59452991122 -1460.55135009809 0.0 0.0 0.0 0.0 0.0 0.0
-22194.3117149877 3319.73795357064 -5592.25935942849 0.0 0.0 0.0 0.0 0.0 0.0
-35720.2803081772 -2813.5493403754 -5508.21407509243 0.0 0.0 0.0 0.0 0.0 0.0
-35891.987949373 -3214.20050316565 -1481.83193858048 0.0 0.0 0.0 0.0 0.0 0.0
-21799.6504715812 2825.37270160228 -1510.44987877978 0.0 0.0 0.0 0.0 0.0 0.0
-21627.9428303854 3226.02386439252 -5536.83201529173 0.0 0.0 0.0 0.0 0.0 0.0
-34789.0392925238 -2741.50822165883 -5455.16274396098 0.0 0.0 0.0 0.0 0.0 0.0
-34958.4690959318 -3136.8444296107 -1533.60256021168 0.0 0.0 0.0 0.0 0.0 0.0
-21233.0084528092 2745.49584601325 -1561.84086077967 0.0 0.0 0.0 0.0 0.0 0.0
-21063.5786494013 3140.83205396512 -5483.40104452897 0.0 0.0 0.0 0.0 0.0 0.0
-33859.0593043225 -2665.6688046353 -5402.70815311078 0.0 0.0 0.0 0.0 0.0 0.0
-34027.5374459029 -3058.78446832289 -1585.77688380457 0.0 0.0 0.0 0.0 0.0 0.0
-20668.2780033312 2666.61243563643 -1613.85657406797 0.0 0.0 0.0 0.0 0.0 0.0
-20499.7998617508 3059.72809932401 -5430.78784337418 0.0 0.0 0.0 0.0 0.0 0.0
-32929.369665337 -2588.14113379466 -5350.44269840779 0.0 0.0 0.0 0.0 0.0 0.0
-33097.5001749414 -2980.44565620486 -1638.079457959 0.0 0.0 0.0 0.0 0.0 0.0
-20104.2288333706 2588.09920446834 -1666.10120955973 0.0 0.0 0.0 0.0 0.0 0.0
-19936.0983237662 2980.40372687853 -5378.46445000852 0.0 0.0 0.0 0.0 0.0 0.0
-31999.6578960125 -2509.94182237817 -5298.21355797234 0.0 0.0 0.0 0.0 0.0 0.0
-32167.6887627905 -2902.01384486033 -1690.40685773695 0.0 0.0 0.0 0.0 0.0 0.0
-19540.3653119667 2509.69620549276 -1718.41200219996 0.0 0.0 0.0 0.0 0.0 0.0
-19372.3344451886 2901.76822797492 -5326.21870243536 0.0 0.0 0.0 0.0 0.0 0.0
-31069.8601914498 -2431.51588571432 -5245.97428795237 0.0 0.0 0.0 0.0 0.0 0.0
-31237.8800738207 -2823.56227791295 -1742.7275332909 0.0 0.0 0.0 0.0 0.0 0.0
-18976.5164325055 2431.30785407925 -1770.73084701938 0.0 0.0 0.0 0.0 0.0 0.0
-18808.4965501347 2823.35424627788 -5273.97760168084 0.0 0.0 0.0 0.0 0.0 0.0
-30139.9893974101 -2353.03770230841 -5193.71724238376 0.0 0.0 0.0 0.0 0.0 0.0
-30308.0232531706 -2745.11669908284 -1795.03607957855 0.0 0.0 0.0 0.0 0.0 0.0
-18412.6391833523 2352.90504512498 -1823.04172220529 0.0 0.0 0.0 0.0 0.0 0.0
-18244.6053275919 2744.9840418994 -5221.7228850105 0.0 0.0 0.0 0.0 0.0 0.0
-29210.0711510943 -2274.56579819301 -5141.44570393082 0.0 0.0 0.0 0.0 0.0 0.0
-29378.1227094526 -2666.68610102908 -1847.33432828503 0.0 0.0 0.0 0.0 0.0 0.0
-17848.7328946924 2274.4809624396 -1875.34292134475 0.0 0.0 0.0 0.0 0.0 0.0
-17680.6813363341 2666.60126527567 -5169.45429699054 0.0 0.0 0.0 0.0 0.0 0.0
-28280.1247522087 -2196.11554792453 -5089.16385461451 0.0 0.0 0.0 0.0 0.0 0.0
-28448.1936042576 -2588.27620270529 -1899.62445383669 0.0 0.0 0.0 0.0 0.0 0.0
-17284.8057015352 2196.03289846145 -1927.63592917817 0.0 0.0 0.0 0.0 0.0 0.0
-17116.7368494863 2588.19355324221 -5117.175329956 0.0 0.0 0.0 0.0 0.0 0.0
-27350.1599261684 -2117.69034066707 -5036.87389676392 0.0 0.0 0.0 0.0 0.0 0.0
-27518.2476590168 -2509.89505064664 -1951.9068771412 0.0 0.0 0.0 0.0 0.0 0.0
-16720.8630903372 2117.55547878745 -1979.92149928259 0.0 0.0 0.0 0.0 0.0 0.0
-16552.7753574889 2509.76018876701 -5064.88851890532 0.0 0.0 0.0 0.0 0.0 0.0
-26420.1777736943 -2039.29367122271 -4984.57561472334 0.0 0.0 0.0 0.0 0.0 0.0
-26588.2898960044 -2431.55528994631 -2004.17978139394 0.0 0.0 0.0 0.0 0.0 0.0
-16156.9044793515 2039.03846004778 -2032.19846844563 0.0 0.0 0.0 0.0 0.0 0.0
-15988.7923570414 2431.30007877138 -5012.59430177502 0.0 0.0 0.0 0.0 0.0 0.0
-25490.1717722997 -1960.93323693 -4932.26653618924 0.0 0.0 0.0 0.0 0.0 0.0
-25658.3182027569 -2353.27490799682 -2056.439007557 0.0 0.0 0.0 0.0 0.0 0.0
-15592.921852544 1960.46638495155 -2084.4634126332 0.0 0.0 0.0 0.0 0.0 0.0
-15424.7754220868 2352.80805601837 -4960.29094126545 0.0 0.0 0.0 0.0 0.0 0.0
-24560.1277756988 -1882.62186782906 -4879.94213682943 0.0 0.0 0.0 0.0 0.0 0.0
-24728.3227008319 -2275.07669313981 -2108.67799021985 0.0 0.0 0.0 0.0 0.0 0.0
-15028.8981876984 1881.81952677457 -2136.71047774204 0.0 0.0 0.0 0.0 0.0 0.0
-14860.7032625652 2274.27435208532 -4907.97462435163 0.0 0.0 0.0 0.0 0.0 0.0
-23630.0231076167 -1804.37686747613 -4827.59608394671 0.0 0.0 0.0 0.0 0.0 0.0
-23798.2839956332 -2196.98560618138 -2160.8878134977 0.0 0.0 0.0 0.0 0.0 0.0
-14464.8050490617 1803.07679949214 -2188.93129483379 0.0 0.0 0.0 0.0 0.0 0.0
-14296.5441610451 2195.68553819739 -4855.6395652828 0.0 0.0 0.0 0.0 0.0 0.0
-22699.8253416102 -1726.21761160008 -4775.2207868554 0.0 0.0 0.0 0.0 0.0 0.0
-22868.1702135358 -2119.0223127598 -2213.05772627117 0.0 0.0 0.0 0.0 0.0 0.0
-13900.599501491 1724.22227811655 -2241.11520492543 0.0 0.0 0.0 0.0 0.0 0.0
-13732.2546295654 2117.02697927628 -4803.27826550967 0.0 0.0 0.0 0.0 0.0 0.0
-21769.4917978913 -1648.16013462645 -4722.80873344158 0.0 0.0 0.0 0.0 0.0 0.0
-21937.9331718315 -2041.19000715353 -2265.17671803804 0.0 0.0 0.0 0.0 0.0 0.0
-13336.2211179191 1645.25801595178 -2293.2502803614 0.0 0.0 0.0 0.0 0.0 0.0
-13167.7797439789 2038.28788847886 -4750.88229576494 0.0 0.0 0.0 0.0 0.0 0.0
-20838.9714722853 -1570.20642163373 -4670.35534913447 0.0 0.0 0.0 0.0 0.0 0.0
-21007.5045391618 -1963.45024434556 -2317.23710632612 0.0 0.0 0.0 0.0 0.0 0.0
-12771.5906893325 1566.22711986696 -2345.32595080554 0.0 0.0 0.0 0.0 0.0 0.0
-12603.057622456 1959.47094257879 -4698.44419361389 0.0 0.0 0.0 0.0 0.0 0.0
-19908.2122374442 -1492.32497218091 -4617.86446343328 0.0 0.0 0.0 0.0 0.0 0.0
-20076.7937243374 -1885.68177493174 -2369.24156957167 0.0 0.0 0.0 0.0 0.0 0.0
-12206.6135958218 1487.25256586068 -2397.33848405387 0.0 0.0 0.0 0.0 0.0 0.0
-12038.0321089286 1880.60936861151 -4645.96137791548 0.0 0.0 0.0 0.0 0.0 0.0
-18977.1778804383 -1414.41784183211 -4565.35792289603 0.0 0.0 0.0 0.0 0.0 0.0
-19145.6907415557 -1807.61451777267 -2421.21569061329 0.0 0.0 0.0 0.0 0.0 0.0
-11641.1929285661 1408.59883065144 -2449.30116746619 0.0 0.0 0.0 0.0 0.0 0.0
-11472.6800674487 1801.795506592 -4593.44339974893 0.0 0.0 0.0 0.0 0.0 0.0
-18045.8819795022 -1336.26790546404 -4512.89142348411 0.0 0.0 0.0 0.0 0.0 0.0
-18214.07972732 -1728.72931703897 -2473.22882972933 0.0 0.0 0.0 0.0 0.0 0.0
-11075.2606491783 1330.7645735932 -2501.26178769896 0.0 0.0 0.0 0.0 0.0 0.0
-10907.0629013605 1723.22598516813 -4540.92438145375 0.0 0.0 0.0 0.0 0.0 0.0
-17114.4487665276 -1257.45890527077 -4460.57916851829 0.0 0.0 0.0 0.0 0.0 0.0
-17281.8724211394 -1648.11409936516 -2525.42692774168 0.0 0.0 0.0 0.0 0.0 0.0
-10508.8395784213 1254.61426179976 -2553.33087017699 0.0 0.0 0.0 0.0 0.0 0.0
-10341.4159238094 1645.26945589415 -4488.48311095361 0.0 0.0 0.0 0.0 0.0 0.0
-16183.2146187367 -1177.26075547828 -4408.63032542119 0.0 0.0 0.0 0.0 0.0 0.0
-16349.0759739982 -1564.27058442174 -2578.08144839931 0.0 0.0 0.0 0.0 0.0 0.0
-9942.15490442162 1181.55273111109 -2605.72500760956 0.0 0.0 0.0 0.0 0.0 0.0
-9776.29354916014 1568.56256005454 -4436.27388463144 0.0 0.0 0.0 0.0 0.0 0.0
-15252.8865639653 -1094.47512297907 -4357.40016546064 0.0 0.0 0.0 0.0 0.0 0.0
-15415.9157535576 -1474.87656536114 -2631.65875528941 0.0 0.0 0.0 0.0 0.0 0.0
-9375.82081795832 1113.73554989571 -2658.83028688813 0.0 0.0 0.0 0.0 0.0 0.0
-9212.791628366 1494.13699227778 -4384.57169705936 0.0 0.0 0.0 0.0 0.0 0.0
-14324.7735186938 -1007.24417899092 -4307.45778414185 0.0 0.0 0.0 0.0 0.0 0.0
-14483.0403048135 -1376.53334660358 -2686.91325261972 0.0 0.0 0.0 0.0 0.0 0.0
-8811.13444448604 1054.28345067963 -2713.29105030633 0.0 0.0 0.0 0.0 0.0 0.0
-8652.86765836633 1423.57261829228 -4333.83558182847 0.0 0.0 0.0 0.0 0.0 0.0
-13401.0964209299 -912.843110653436 -4259.66981385451 0.0 0.0 0.0 0.0 0.0 0.0
-13551.8392234001 -1264.57631641738 -2745.0048972408 0.0 0.0 0.0 0.0 0.0 0.0
-8250.51201525211 1007.4210585032 -2770.12869765251 0.0 0.0 0.0 0.0 0.0 0.0
-8099.76921278185 1359.15426426714 -4284.79361426622 0.0 0.0 0.0 0.0 0.0 0.0
-12485.354618721 -807.511485840603 -4215.29478139525 0.0 0.0 0.0 0.0 0.0 0.0
-12624.8985112483 -1133.11390173759 -2807.63631727632 0.0 0.0 0.0 0.0 0.0 0.0
-7698.09388683198 978.37379444081 -2830.89363269753 0.0 0.0 0.0 0.0 0.0 0.0
-7558.5499943047 1303.9762103378 -4238.55209681647 0.0 0.0 0.0 0.0 0.0 0.0
-11582.660163421 -686.440324097332 -4176.07465679148 0.0 0.0 0.0 0.0 0.0 0.0
-11706.5884667081 -975.606365100656 -2877.195414277 0.0 0.0 0.0 0.0 0.0 0.0
-7160.51111790743 972.712498671069 -2897.85013149152 0.0 0.0 0.0 0.0 0.0 0.0
-7036.58281462029 1261.87853967439 -4196.72937400601 0.0 0.0 0.0 0.0 0.0 0.0
-10699.8225309128 -544.135249759805 -4144.296543213 0.0 0.0 0.0 0.0 0.0 0.0
-10803.7027797854 -786.52249712923 -2956.87282828023 0.0 0.0 0.0 0.0 0.0 0.0
-6647.71977752072 994.613075269926 -2974.18620309234 0.0 0.0 0.0 0.0 0.0 0.0
-6543.8395286481 1237.00032263935 -4161.60991802511 0.0 0.0 0.0 0.0 0.0 0.0
-9844.74298940016 -375.539729821265 -4122.77242401103 0.0 0.0 0.0 0.0 0.0 0.0
-9925.90912638909 -564.927382795442 -3050.69032049892 0.0 0.0 0.0 0.0 0.0 0.0
-6173.62176409673 1043.19577247271 -3064.21800999708 0.0 0.0 0.0 0.0 0.0 0.0
-6092.45562710779 1232.58342544689 -4136.30011350918 0.0 0.0 0.0 0.0 0.0 0.0
-9024.35179410423 -178.545668959072 -4114.63123559326 0.0 0.0 0.0 0.0 0.0 0.0
-9085.4921080482 -321.206401495005 -3163.29683454511 0.0 0.0 0.0 0.0 0.0 0.0
-5755.82170437967 1105.79520007722 -3173.4868868691 0.0 0.0 0.0 0.0 0.0 0.0
-5694.6813904357 1248.45593261316 -4124.82128791725 0.0 0.0 0.0 0.0 0.0 0.0
-8239.99758321434 41.1483948623645 -4122.69161016879 0.0 0.0 0.0 0.0 0.0 0.0
-8295.46210209975 -88.2688158702586 -3299.18958271938 0.0 0.0 0.0 0.0 0.0 0.0
-5413.20500602682 1146.98422530385 -3308.43366920028 0.0 0.0 0.0 0.0 0.0 0.0
-5357.74048714141 1276.40143603648 -4131.93569664969 0.0 0.0 0.0 0.0 0.0 0.0
-7479.32308947366 261.50504668378 -4147.8982943822 0.0 0.0 0.0 0.0 0.0 0.0
-7564.69690303488 62.2994817075846 -3460.56316609833 0.0 0.0 0.0 0.0 0.0 0.0
-5159.02395404134 1093.30217413339 -3474.7921350252 0.0 0.0 0.0 0.0 0.0 0.0
-5073.65014048012 1292.50773910958 -4162.12726330907 0.0 0.0 0.0 0.0 0.0 0.0
-6705.3681240185 430.583244143177 -4185.75971639493 0.0 0.0 0.0 0.0 0.0 0.0
-6888.84719752425 2.46540596309933 -3642.19383992439 0.0 0.0 0.0 0.0 0.0 0.0
-4986.36662987736 817.814220668909 -3672.77368550868 0.0 0.0 0.0 0.0 0.0 0.0
-4802.88755637161 1245.93205884899 -4216.33956197922 0.0 0.0 0.0 0.0 0.0 0.0
-5848.77036395106 448.212620351611 -4219.01559037003 0.0 0.0 0.0 0.0 0.0 0.0
-6237.33963324094 -458.449007991447 -3821.03345472114 0.0 0.0 0.0 0.0 0.0 0.0
-4844.40215846982 138.52419548189 -3885.79499960278 0.0 0.0 0.0 0.0 0.0 0.0
-4455.83288917994 1045.18582382495 -4283.77713525167 0.0 0.0 0.0 0.0 0.0 0.0
-4818.4975628108 149.626165050039 -4204.72439592218 0.0 0.0 0.0 0.0 0.0 0.0
-5541.56659735341 -1537.53491554938 -3939.17688130288 0.0 0.0 0.0 0.0 0.0 0.0
-4612.15029618585 -1139.21364362042 -4059.68838705998 0.0 0.0 0.0 0.0 0.0 0.0
-3889.08126164324 547.947436978993 -4325.23590167928 0.0 0.0 0.0 0.0 0.0 0.0
-3555.91605988184 -686.541828061562 -4056.75828180412 0.0 0.0 0.0 0.0 0.0 0.0
-4698.15184996157 -3351.75867158093 -3884.62074409798 0.0 0.0 0.0 0.0 0.0 0.0
-4095.67046799011 -3093.55236502173 -4074.99337577794 0.0 0.0 0.0 0.0 0.0 0.0
-2953.43467791038 -428.335521502365 -4247.13091348407 0.0 0.0 0.0 0.0 0.0 0.0
-2148.21577541606 -2258.92892534714 -3633.06335442288 0.0 0.0 0.0 0.0 0.0 0.0
-3610.73214236178 -5671.46711488715 -3486.24505866313 0.0 0.0 0.0 0.0 0.0 0.0
-3096.86810720264 -5451.23967124752 -3729.99778648741 0.0 0.0 0.0 0.0 0.0 0.0
-1634.35174025692 -2038.7014817075 -3876.81608224717 0.0 0.0 0.0 0.0 0.0 0.0
-959.619474598533 -4535.27597156005 -2748.9430405657 0.0 0.0 0.0 0.0 0.0 0.0
-2292.18362839798 -7644.59233042542 -2548.51988495132 0.0 0.0 0.0 0.0 0.0 0.0
-1590.70258374764 -7343.95759700385 -2770.61391058456 0.0 0.0 0.0 0.0 0.0 0.0
-258.138429948199 -4234.64123813847 -2971.03706619894 0.0 0.0 0.0 0.0 0.0 0.0
-632.820339647562 -6933.43663524667 -1233.69168068894 0.0 0.0 0.0 0.0 0.0 0.0
-1014.44650490112 -7823.89768750498 -926.588393969512 0.0 0.0 0.0 0.0 0.0 0.0
60.4149986168559 -7363.24275742584 -990.192754845106 0.0 0.0 0.0 0.0 0.0 0.0
442.041163870417 -6472.78170516754 -1297.29604156453 0.0 0.0 0.0 0.0 0.0 0.0
-28213.2954825901 -12091.4123496815 -636.805415855795 0.0 0.0 0.0 0.0 0.0 0.0
-26182.6355598295 -7353.20586324027 3406.08275784633 0.0 0.0 0.0 0.0 0.0 0.0
-12032.5269518721 -1288.87360268708 3744.52607830641 0.0 0.0 0.0 0.0 0.0 0.0
-14063.1868746326 -6027.08008912827 -298.36209539571 0.0 0.0 0.0 0.0 0.0 0.0
-29994.3562230104 -8986.80043317494 -4221.12861215647 0.0 0.0 0.0 0.0 0.0 0.0
-28419.4231463544 -5311.95658764427 373.819814784656 0.0 0.0 0.0 0.0 0.0 0.0
-12337.1036520605 1580.46605276742 636.308660893989 0.0 0.0 0.0 0.0 0.0 0.0
-13912.0367287165 -2094.37779276325 -3958.63976604713 0.0 0.0 0.0 0.0 0.0 0.0
-30590.4854482569 -6242.41185988819 -5895.58810880136 0.0 0.0 0.0 0.0 0.0 0.0
-29737.7721712613 -4252.74754689842 -995.881886861578 0.0 0.0 0.0 0.0 0.0 0.0
-12588.8003944721 3096.81178601126 -853.76300736231 0.0 0.0 0.0 0.0 0.0 0.0
-13441.5136714677 1107.14747302148 -5753.46922930209 0.0 0.0 0.0 0.0 0.0 0.0
-30232.7813527675 -4464.8943389725 -6407.50027721257 0.0 0.0 0.0 0.0 0.0 0.0
-29953.2558172167 -3812.66808935408 -1447.85686231861 0.0 0.0 0.0 0.0 0.0 0.0
-12594.5038650879 3626.79703298685 -1401.26927306015 0.0 0.0 0.0 0.0 0.0 0.0
-12874.0294006387 2974.57078336844 -6360.91268795411 0.0 0.0 0.0 0.0 0.0 0.0
-29416.1883416748 -3582.49631412181 -6399.7767640786 0.0 0.0 0.0 0.0 0.0 0.0
-29442.7046861458 -3644.36778455426 -1524.22510012879 0.0 0.0 0.0 0.0 0.0 0.0
-12378.2738623215 3668.95971137044 -1528.64449087397 0.0 0.0 0.0 0.0 0.0 0.0
-12351.7575178505 3730.83118180289 -6404.19615482377 0.0 0.0 0.0 0.0 0.0 0.0
-28506.616324464 -3243.18705811919 -6240.14393900698 0.0 0.0 0.0 0.0 0.0 0.0
-28643.7420984846 -3563.14719750066 -1500.30586484278 0.0 0.0 0.0 0.0 0.0 0.0
-12054.3088389099 3546.60991374564 -1523.16016051289 0.0 0.0 0.0 0.0 0.0 0.0
-11917.1830648893 3866.57005312711 -6262.99823467708 0.0 0.0 0.0 0.0 0.0 0.0
-27658.9744027913 -3141.10389934636 -6078.24998740677 0.0 0.0 0.0 0.0 0.0 0.0
-27812.4954070924 -3499.31957604906 -1478.00694394528 0.0 0.0 0.0 0.0 0.0 0.0
-11711.6447549772 3401.04498914317 -1503.59377799547 0.0 0.0 0.0 0.0 0.0 0.0
-11558.1237506761 3759.26066584587 -6103.83682145696 0.0 0.0 0.0 0.0 0.0 0.0
-26896.5089801367 -3106.75396449658 -5951.46283350743 0.0 0.0 0.0 0.0 0.0 0.0
-27036.6749204972 -3433.80782533781 -1480.33756782652 0.0 0.0 0.0 0.0 0.0 0.0
-11387.736490614 3272.88007318356 -1503.69855788661 0.0 0.0 0.0 0.0 0.0 0.0
-11247.5705502535 3599.93393402479 -5974.82382356752 0.0 0.0 0.0 0.0 0.0 0.0
-26196.4458339658 -3073.70964539577 -5856.73149415348 0.0 0.0 0.0 0.0 0.0 0.0
-26320.7349716319 -3363.71763328353 -1504.32206925306 0.0 0.0 0.0 0.0 0.0 0.0
-11087.3019844805 3164.89650406709 -1525.03692553076 0.0 0.0 0.0 0.0 0.0 0.0
-10963.0128468143 3454.90449195485 -5877.44635043117 0.0 0.0 0.0 0.0 0.0 0.0
-25532.7921692488 -3026.02786083359 -5782.8773032143 0.0 0.0 0.0 0.0 0.0 0.0
-25645.9096243295 -3289.96858935535 -1542.26250438685 0.0 0.0 0.0 0.0 0.0 0.0
-10803.7578284334 3070.95360888583 -1561.11541356698 0.0 0.0 0.0 0.0 0.0 0.0
-10690.6403733527 3334.89433740759 -5801.73021239443 0.0 0.0 0.0 0.0 0.0 0.0
-24887.798120422 -2965.06365910926 -5720.64692227141 0.0 0.0 0.0 0.0 0.0 0.0
-24994.4482131494 -3213.91387547319 -1587.9439060393 0.0 0.0 0.0 0.0 0.0 0.0
-10529.987656337 2985.14064887497 -1605.71892149387 0.0 0.0 0.0 0.0 0.0 0.0
-10423.3375636096 3233.9908652389 -5738.42193772597 0.0 0.0 0.0 0.0 0.0 0.0
-24251.446432693 -2895.48454099189 -5664.22457123295 0.0 0.0 0.0 0.0 0.0 0.0
-24354.7743802353 -3136.58308525726 -1637.48648073353 0.0 0.0 0.0 0.0 0.0 0.0
-10261.1910634874 2903.52405049186 -1654.70780532392 0.0 0.0 0.0 0.0 0.0 0.0
-10157.8631159451 3144.62259475722 -5681.44589582333 0.0 0.0 0.0 0.0 0.0 0.0
-23618.7025580553 -2821.12373289442 -5610.43764648272 0.0 0.0 0.0 0.0 0.0 0.0
-23720.4834482085 -3058.61247658518 -1688.77974613772 0.0 0.0 0.0 0.0 0.0 0.0
-9994.68079700102 2823.87437393233 -1705.74322782992 0.0 0.0 0.0 0.0 0.0 0.0
-9892.89990684784 3061.36311762308 -5627.40112817492 0.0 0.0 0.0 0.0 0.0 0.0
-22987.2748571501 -2744.38022327442 -5557.72672873223 0.0 0.0 0.0 0.0 0.0 0.0
-23088.4043828084 -2980.34911647706 -1740.78739559867 0.0 0.0 0.0 0.0 0.0 0.0
-9729.1167168409 2745.05988322328 -1757.64231654172 0.0 0.0 0.0 0.0 0.0 0.0
-9627.98719118262 2981.02877642593 -5574.58164967528 0.0 0.0 0.0 0.0 0.0 0.0
-22356.2247032435 -2666.55782523496 -5505.39527153922 0.0 0.0 0.0 0.0 0.0 0.0
-22457.1135100231 -2901.96504105403 -1793.04675414351 0.0 0.0 0.0 0.0 0.0 0.0
-9463.89369913807 2666.55773503954 -1809.86155527345 0.0 0.0 0.0 0.0 0.0 0.0
-9363.00489235847 2901.96495085861 -5522.21007266916 0.0 0.0 0.0 0.0 0.0 0.0
-21725.219121841 -2588.29601754744 -5453.16424701914 0.0 0.0 0.0 0.0 0.0 0.0
-21826.0372907594 -2823.53841169037 -1845.37258702155 0.0 0.0 0.0 0.0 0.0 0.0
-9198.76648076786 2588.14907830601 -1862.17561517462 0.0 0.0 0.0 0.0 0.0 0.0
-9097.94831184946 2823.39147244894 -5469.96727517221 0.0 0.0 0.0 0.0 0.0 0.0
-21094.1685289275 -2509.88037090525 -5400.93818650244 0.0 0.0 0.0 0.0 0.0 0.0
-21194.9778498538 -2745.10211973332 -1897.70153045084 0.0 0.0 0.0 0.0 0.0 0.0
-8933.64955367322 2509.75286434407 -1914.50308393856 0.0 0.0 0.0 0.0 0.0 0.0
-8832.8402327469 2744.97461317214 -5417.73973999016 0.0 0.0 0.0 0.0 0.0 0.0
-20463.0667449401 -2431.42593191317 -5348.69356844197 0.0 0.0 0.0 0.0 0.0 0.0
-20563.8855582564 -2666.66982965113 -1950.01791040603 0.0 0.0 0.0 0.0 0.0 0.0
-8668.52075513058 2431.34365740278 -1966.82104595874 0.0 0.0 0.0 0.0 0.0 0.0
-8567.70194181431 2666.58755514074 -5365.49670399468 0.0 0.0 0.0 0.0 0.0 0.0
-19831.9277112381 -2352.97360950044 -5296.43048519127 0.0 0.0 0.0 0.0 0.0 0.0
-19932.7599885648 -2588.24892326271 -2002.32158809975 0.0 0.0 0.0 0.0 0.0 0.0
-8403.37884874445 2352.91442237458 -2019.1269676542 0.0 0.0 0.0 0.0 0.0 0.0
-8302.54657141776 2588.18973613685 -5313.23586474572 0.0 0.0 0.0 0.0 0.0 0.0
-19200.7639433587 -2274.5363324601 -5244.153996711 0.0 0.0 0.0 0.0 0.0 0.0
-19301.6112399625 -2509.84669120228 -2054.61551559019 0.0 0.0 0.0 0.0 0.0 0.0
-8138.22655603968 2274.46103047893 -2071.42339835749 0.0 0.0 0.0 0.0 0.0 0.0
-8037.37925943589 2509.7713892211 -5260.9618794783 0.0 0.0 0.0 0.0 0.0 0.0
-18569.5808959162 -2196.11940089672 -5191.86810531734 0.0 0.0 0.0 0.0 0.0 0.0
-18670.4468793987 -2431.47336235589 -2106.9016490745 0.0 0.0 0.0 0.0 0.0 0.0
-7873.06428254875 2195.97632200837 -2123.71264632159 0.0 0.0 0.0 0.0 0.0 0.0
-7772.19829906625 2431.33028346754 -5208.67910256442 0.0 0.0 0.0 0.0 0.0 0.0
-17938.3761461028 -2117.72876237195 -5139.57445156693 0.0 0.0 0.0 0.0 0.0 0.0
-18039.2682567217 -2353.14368714928 -2159.17997250058 0.0 0.0 0.0 0.0 0.0 0.0
-7607.88757998946 2117.44803145025 -2175.99532427039 0.0 0.0 0.0 0.0 0.0 0.0
-7506.99546937061 2352.86295622757 -5156.38980333674 0.0 0.0 0.0 0.0 0.0 0.0
-17307.139199457 -2039.37409117868 -5087.2724453204 0.0 0.0 0.0 0.0 0.0 0.0
-17408.0692719474 -2274.87759365639 -2211.44845849373 0.0 0.0 0.0 0.0 0.0 0.0
-7342.68531805406 2038.85838658361 -2228.27013724214 0.0 0.0 0.0 0.0 0.0 0.0
-7241.75524556361 2274.36188906132 -5104.09412406881 0.0 0.0 0.0 0.0 0.0 0.0
-16675.8506819686 -1961.06962652263 -5034.95967021216 0.0 0.0 0.0 0.0 0.0 0.0
-16776.8349558409 -2196.69959889131 -2263.7032233175 0.0 0.0 0.0 0.0 0.0 0.0
-7077.43739170959 1960.18507145068 -2280.53393562955 0.0 0.0 0.0 0.0 0.0 0.0
-6976.4531178373 2195.81504381937 -5051.79038252421 0.0 0.0 0.0 0.0 0.0 0.0
-16044.4809291877 -1882.83358746849 -4982.63231085827 0.0 0.0 0.0 0.0 0.0 0.0
-16145.5390640009 -2118.63590203273 -2315.93876832794 0.0 0.0 0.0 0.0 0.0 0.0
-6812.11166514478 1881.40441176275 -2332.78179079682 0.0 0.0 0.0 0.0 0.0 0.0
-6711.05353033154 2117.20672632699 -4999.47533332714 0.0 0.0 0.0 0.0 0.0 0.0
-15412.9886445046 -1804.68572224859 -4930.28573900382 0.0 0.0 0.0 0.0 0.0 0.0
-15514.1407076086 -2040.70720282467 -2368.14850746456 0.0 0.0 0.0 0.0 0.0 0.0
-6546.66039722119 1802.49864448423 -2385.00718464856 0.0 0.0 0.0 0.0 0.0 0.0
-6445.50833411716 2038.5201250603 -4947.14441618783 0.0 0.0 0.0 0.0 0.0 0.0
-14781.3209500966 -1726.64159246236 -4877.91559830407 0.0 0.0 0.0 0.0 0.0 0.0
-14882.5806128621 -1962.91413891524 -2420.32599258932 0.0 0.0 0.0 0.0 0.0 0.0
-6281.01699286046 1723.47026965688 -2437.20260305024 0.0 0.0 0.0 0.0 0.0 0.0
-6179.75733009494 1959.74281610976 -4894.79220876499 0.0 0.0 0.0 0.0 0.0 0.0
-14149.417117399 -1648.70121228823 -4825.51990584181 0.0 0.0 0.0 0.0 0.0 0.0
-14250.7783447941 -1885.21074287667 -2472.46747964366 0.0 0.0 0.0 0.0 0.0 0.0
-6015.09485310057 1644.36789642055 -2489.36101754283 0.0 0.0 0.0 0.0 0.0 0.0
-5913.73362570552 1880.877427009 -4842.41344374098 0.0 0.0 0.0 0.0 0.0 0.0
-13517.2197643901 -1570.82849413211 -4773.1029067536 0.0 0.0 0.0 0.0 0.0 0.0
-13618.6330534386 -1807.45950191194 -2524.57677813635 0.0 0.0 0.0 0.0 0.0 0.0
-5748.79160327826 1565.32969101393 -2541.47899297777 0.0 0.0 0.0 0.0 0.0 0.0
-5647.37831422976 1801.96069879376 -4790.00512159501 0.0 0.0 0.0 0.0 0.0 0.0
-12884.6995250655 -1492.91656118062 -4720.68169383141 0.0 0.0 0.0 0.0 0.0 0.0
-12986.032288618 -1729.35967613641 -2576.67370821591 0.0 0.0 0.0 0.0 0.0 0.0
-5482.00433896379 1486.65230228683 -2593.56250214133 0.0 0.0 0.0 0.0 0.0 0.0
-5380.67157541131 1723.09541724262 -4737.57048775682 0.0 0.0 0.0 0.0 0.0 0.0
-12251.9022614124 -1414.73252161972 -4668.29692220347 0.0 0.0 0.0 0.0 0.0 0.0
-12352.8764768445 -1650.33902429452 -2628.80793717433 0.0 0.0 0.0 0.0 0.0 0.0
-5214.66502924247 1408.89445324919 -2645.63697307967 0.0 0.0 0.0 0.0 0.0 0.0
-5113.69081381042 1644.50095592399 -4685.12595810881 0.0 0.0 0.0 0.0 0.0 0.0
-11619.0317514756 -1335.83414199358 -4616.02926042897 0.0 0.0 0.0 0.0 0.0 0.0
-11719.1310411184 -1569.39915116012 -2681.08042785252 0.0 0.0 0.0 0.0 0.0 0.0
-4946.8101271008 1333.02409770457 -2697.76364279298 0.0 0.0 0.0 0.0 0.0 0.0
-4846.71083745799 1566.58910687111 -4632.71247536944 0.0 0.0 0.0 0.0 0.0 0.0
-10986.5850118572 -1255.45085290534 -4564.02344230696 0.0 0.0 0.0 0.0 0.0 0.0
-11084.92398152 -1484.90844878512 -2733.67512259793 0.0 0.0 0.0 0.0 0.0 0.0
-4678.70486253839 1260.61403077842 -2750.06495087506 0.0 0.0 0.0 0.0 0.0 0.0
-4580.36589287562 1490.07162665821 -4580.41327058409 0.0 0.0 0.0 0.0 0.0 0.0
-10355.5607054644 -1172.32418761843 -4512.52181204774 0.0 0.0 0.0 0.0 0.0 0.0
-10450.7136756588 -1394.34778473873 -2786.90371717123 0.0 0.0 0.0 0.0 0.0 0.0
-4411.05034359103 1194.07935757603 -2802.76254553697 0.0 0.0 0.0 0.0 0.0 0.0
-4315.89737339661 1416.10295469633 -4528.38064041347 0.0 0.0 0.0 0.0 0.0 0.0
-9727.7605160668 -1084.51071634216 -4461.90901211157 0.0 0.0 0.0 0.0 0.0 0.0
-9817.55827938225 -1294.03883074488 -2841.26644357971 0.0 0.0 0.0 0.0 0.0 0.0
-4145.30928952073 1136.92502205292 -2856.23273746562 0.0 0.0 0.0 0.0 0.0 0.0
-4055.51152620528 1346.45313645563 -4476.87530599748 0.0 0.0 0.0 0.0 0.0 0.0
-9106.19304767806 -989.168017157368 -4412.7690075396 0.0 0.0 0.0 0.0 0.0 0.0
-9187.52083128924 -1178.93284558344 -2897.53193563321 0.0 0.0 0.0 0.0 0.0 0.0
-3884.19107961688 1093.92276227614 -2911.08656623507 0.0 0.0 0.0 0.0 0.0 0.0
-3802.8632960057 1283.68759070222 -4426.32363814146 0.0 0.0 0.0 0.0 0.0 0.0
-8495.55881034183 -882.377693748838 -4365.95533479717 0.0 0.0 0.0 0.0 0.0 0.0
-8564.23543104394 -1042.62314205376 -2956.84027083271 0.0 0.0 0.0 0.0 0.0 0.0
-3632.33270716833 1071.04945389293 -2968.28637428306 0.0 0.0 0.0 0.0 0.0 0.0
-3563.65608646622 1231.29490219785 -4377.40143824752 0.0 0.0 0.0 0.0 0.0 0.0
-7902.72435883225 -759.118396820174 -4322.67601214118 0.0 0.0 0.0 0.0 0.0 0.0
-7953.62537645668 -877.887437943839 -3020.83650746843 0.0 0.0 0.0 0.0 0.0 0.0
-3397.18711010205 1074.87181906528 -3029.32001040584 0.0 0.0 0.0 0.0 0.0 0.0
-3346.28609247763 1193.64086018895 -4331.15951507859 0.0 0.0 0.0 0.0 0.0 0.0
-7336.95378719735 -613.599613975557 -4284.59629400201 0.0 0.0 0.0 0.0 0.0 0.0
-7364.67932517359 -678.292535920128 -3091.8481492686 0.0 0.0 0.0 0.0 0.0 0.0
-3190.06081860663 1110.82968118 -3096.46907226464 0.0 0.0 0.0 0.0 0.0 0.0
-3162.33528063039 1175.52260312457 -4289.21721699805 0.0 0.0 0.0 0.0 0.0 0.0
-6809.41517476067 -440.322185743162 -4253.96205968544 0.0 0.0 0.0 0.0 0.0 0.0
-6810.01845861842 -441.729848077892 -3173.12354972015 0.0 0.0 0.0 0.0 0.0 0.0
-3027.08367373987 1179.52791687006 -3173.22409702977 0.0 0.0 0.0 0.0 0.0 0.0
-3026.48038988213 1180.93557920479 -4254.06260699507 0.0 0.0 0.0 0.0 0.0 0.0
-6331.07808495739 -236.469687937451 -4233.72682764032 0.0 0.0 0.0 0.0 0.0 0.0
-6305.67777916845 -177.202307763264 -3269.12078229062 0.0 0.0 0.0 0.0 0.0 0.0
-2929.55662044449 1269.70676026129 -3264.88739799246 0.0 0.0 0.0 0.0 0.0 0.0
-2954.95692623343 1210.4393800871 -4229.49344334216 0.0 0.0 0.0 0.0 0.0 0.0
-5907.59656193019 -6.59607180401144 -4227.5695920712 0.0 0.0 0.0 0.0 0.0 0.0
-5869.0454742911 83.3564660205429 -3385.68128228401 0.0 0.0 0.0 0.0 0.0 0.0
-2922.43639003591 1346.18893070134 -3379.25610101082 0.0 0.0 0.0 0.0 0.0 0.0
-2960.98747767501 1256.23639287678 -4221.14441079802 0.0 0.0 0.0 0.0 0.0 0.0
-5529.49060874439 228.879979826274 -4239.3748763928 0.0 0.0 0.0 0.0 0.0 0.0
-5513.33780818677 266.569847794064 -3529.39351492396 0.0 0.0 0.0 0.0 0.0 0.0
-3028.40304304583 1331.54188999732 -3526.70138149769 0.0 0.0 0.0 0.0 0.0 0.0
-3044.55584360346 1293.85202202953 -4236.68274296653 0.0 0.0 0.0 0.0 0.0 0.0
-5157.20141051704 419.199732509662 -4270.94094187798 0.0 0.0 0.0 0.0 0.0 0.0
-5236.79292003961 233.486210290337 -3704.14966934398 0.0 0.0 0.0 0.0 0.0 0.0
-3253.02346617061 1083.67311909133 -3717.41492093108 0.0 0.0 0.0 0.0 0.0 0.0
-3173.43195664805 1269.38664131066 -4284.20619346508 0.0 0.0 0.0 0.0 0.0 0.0
-4706.25917934218 460.857813446377 -4315.15311908697 0.0 0.0 0.0 0.0 0.0 0.0
-5006.24035000298 -239.098251428828 -3900.7624240076 0.0 0.0 0.0 0.0 0.0 0.0
-3555.87291722516 382.487791190239 -3950.7592857844 0.0 0.0 0.0 0.0 0.0 0.0
-3255.89174656436 1082.44385606544 -4365.14998086377 0.0 0.0 0.0 0.0 0.0 0.0
-4050.91945317641 170.324990068274 -4340.20332608409 0.0 0.0 0.0 0.0 0.0 0.0
-4740.14310457061 -1437.86352985152 -4074.3271694391 0.0 0.0 0.0 0.0 0.0 0.0
-3809.57655631314 -1039.04929488404 -4189.1977780048 0.0 0.0 0.0 0.0 0.0 0.0
-3120.35290491894 569.13922503576 -4455.07393464979 0.0 0.0 0.0 0.0 0.0 0.0
-3081.42748629514 -726.985407733463 -4261.7696958632 0.0 0.0 0.0 0.0 0.0 0.0
-4307.19018849405 -3587.09837953093 -4109.33484773228 0.0 0.0 0.0 0.0 0.0 0.0
-3773.66822003585 -3358.44610733456 -4313.6286314321 0.0 0.0 0.0 0.0 0.0 0.0
-2547.90551783693 -498.333135537088 -4466.06347956302 0.0 0.0 0.0 0.0 0.0 0.0
-1845.87146076086 -2532.24749621671 -3911.15755420151 0.0 0.0 0.0 0.0 0.0 0.0
-3568.73506488248 -6552.26257250048 -3792.07806548359 0.0 0.0 0.0 0.0 0.0 0.0
-3151.95685436975 -6373.6433394236 -4079.22199950386 0.0 0.0 0.0 0.0 0.0 0.0
-1429.09325024814 -2353.62826313983 -4198.30148822178 0.0 0.0 0.0 0.0 0.0 0.0
-730.00538762804 -5335.66413939144 -3033.11734519512 0.0 0.0 0.0 0.0 0.0 0.0
-2491.90914480461 -9446.77290613677 -2839.47721830021 0.0 0.0 0.0 0.0 0.0 0.0
-1814.16870067243 -9156.31271579441 -3133.12784449631 0.0 0.0 0.0 0.0 0.0 0.0
-52.2649434958612 -5045.20394904908 -3326.76797139121 0.0 0.0 0.0 0.0 0.0 0.0
-459.16539718655 -8575.59701430046 -1366.15934928018 0.0 0.0 0.0 0.0 0.0 0.0
-1322.56653983745 -10590.1996804859 -1025.17309839644 0.0 0.0 0.0 0.0 0.0 0.0
-129.114661744367 -10078.7203041603 -1169.07328883826 0.0 0.0 0.0 0.0 0.0 0.0
734.28648090653 -8064.11763797485 -1510.05953972199 0.0 0.0 0.0 0.0 0.0 0.0
-14063.1868746326 -6027.08008912827 -298.36209539571 0.0 0.0 0.0 0.0 0.0 0.0
-13396.9838657034 -4472.60640162665 3719.69130992317 0.0 0.0 0.0 0.0 0.0 0.0
666.203052912728 1554.47370635168 3830.72514474472 0.0 0.0 0.0 0.0 0.0 0.0
4.39834617579144E-05 1.88500550391062E-05 -187.328260574166 0.0 0.0 0.0 0.0 0.0 0.0
-15276.4936425478 -5278.11059170282 -3983.47453443037 0.0 0.0 0.0 0.0 0.0 0.0
-14753.8800552112 -4058.67888791756 571.581672535279 0.0 0.0 0.0 0.0 0.0 0.0
1188.81666916856 2773.90542253092 658.683937091369 0.0 0.0 0.0 0.0 0.0 0.0
666.203081832026 1554.47371874566 -3896.37226987428 0.0 0.0 0.0 0.0 0.0 0.0
-15858.2900746184 -4531.99746766349 -5818.1962176608 0.0 0.0 0.0 0.0 0.0 0.0
-15568.9506783014 -3856.87220959053 -947.594283191265 0.0 0.0 0.0 0.0 0.0 0.0
1478.15609234198 3449.03069211378 -899.371050471767 0.0 0.0 0.0 0.0 0.0 0.0
1188.816696025 2773.90543404082 -5769.97298494131 0.0 0.0 0.0 0.0 0.0 0.0
-15854.179684468 -3979.11321223335 -6454.74396378306 0.0 0.0 0.0 0.0 0.0 0.0
-15755.0984790696 -3747.92373297046 -1502.64802019398 0.0 0.0 0.0 0.0 0.0 0.0
1577.23732349219 3680.22018241317 -1486.13448596091 0.0 0.0 0.0 0.0 0.0 0.0
1478.15611809381 3449.03070315028 -6438.23042955 0.0 0.0 0.0 0.0 0.0 0.0
-15512.3521318322 -3643.88958415443 -6505.57490195759 0.0 0.0 0.0 0.0 0.0 0.0
-15518.004759888 -3657.07904961801 -1622.83505241508 0.0 0.0 0.0 0.0 0.0 0.0
1571.58471351079 3667.03072469576 -1623.77715709105 0.0 0.0 0.0 0.0 0.0 0.0
1577.23734156661 3680.22019015935 -6506.51700663356 0.0 0.0 0.0 0.0 0.0 0.0
-15056.9139624558 -3459.46870786134 -6357.18879621819 0.0 0.0 0.0 0.0 0.0 0.0
-15101.9278204172 -3564.5010431046 -1606.18917597222 0.0 0.0 0.0 0.0 0.0 0.0
1526.57085044372 3561.99838726436 -1613.69148563245 0.0 0.0 0.0 0.0 0.0 0.0
1571.58470840511 3667.03072250761 -6364.69110587842 0.0 0.0 0.0 0.0 0.0 0.0
-14605.7427321833 -3351.85029100436 -6186.86583691629 0.0 0.0 0.0 0.0 0.0 0.0
-14657.3312984365 -3472.2236122619 -1577.63340097793 0.0 0.0 0.0 0.0 0.0 0.0
1474.98222734774 3441.62504164565 -1586.23149535347 0.0 0.0 0.0 0.0 0.0 0.0
1526.57079360097 3561.99836290318 -6195.46393129183 0.0 0.0 0.0 0.0 0.0 0.0
-14193.2570937128 -3273.33466738028 -6048.86344654998 0.0 0.0 0.0 0.0 0.0 0.0
-14240.5546027727 -3383.69552185347 -1572.22368530262 0.0 0.0 0.0 0.0 0.0 0.0
1427.68456159302 3331.26412001756 -1580.10660347928 0.0 0.0 0.0 0.0 0.0 0.0
1474.98207065296 3441.62497449075 -6056.74636472663 0.0 0.0 0.0 0.0 0.0 0.0
-13815.830958973 -3201.67110308218 -5945.97147784719 0.0 0.0 0.0 0.0 0.0 0.0
-13857.6722933639 -3299.30088332741 -1590.68142419692 0.0 0.0 0.0 0.0 0.0 0.0
1385.8428944121 3233.63419714799 -1597.65497992872 0.0 0.0 0.0 0.0 0.0 0.0
1427.68422880291 3331.26397739323 -5952.945033579 0.0 0.0 0.0 0.0 0.0 0.0
-13461.010682236 -3129.30304998692 -5867.37471106059 0.0 0.0 0.0 0.0 0.0 0.0
-13498.9511119076 -3217.83071922058 -1625.41672438346 0.0 0.0 0.0 0.0 0.0 0.0
1347.90184146234 3145.10626079511 -1631.74012932873 0.0 0.0 0.0 0.0 0.0 0.0
1385.84227113391 3233.63393002877 -5873.69811600585 0.0 0.0 0.0 0.0 0.0 0.0
-13118.5308470838 -3054.79346286751 -5802.72324854246 0.0 0.0 0.0 0.0 0.0 0.0
-13154.1988340426 -3138.01876577149 -1669.45707356045 0.0 0.0 0.0 0.0 0.0 0.0
1312.23277839442 3061.88049670153 -1675.40173805359 0.0 0.0 0.0 0.0 0.0 0.0
1347.90076535326 3145.10579960551 -5808.6679130356 0.0 0.0 0.0 0.0 0.0 0.0
-12782.0742936507 -2978.53681988923 -5745.18404788991 0.0 0.0 0.0 0.0 0.0 0.0
-12816.5702931335 -3059.02748534911 -1718.23966877073 0.0 0.0 0.0 0.0 0.0 0.0
1277.73503378361 2981.38908332965 -1723.98900201787 0.0 0.0 0.0 0.0 0.0 0.0
1312.23103326641 3061.87974878953 -5750.93338113705 0.0 0.0 0.0 0.0 0.0 0.0
-12448.279136494 -2901.18841821789 -5690.93299162174 0.0 0.0 0.0 0.0 0.0 0.0
-12482.227326087 -2980.40086060166 -1769.2154226821 0.0 0.0 0.0 0.0 0.0 0.0
1243.78416520173 2902.1754928078 -1774.87345428094 0.0 0.0 0.0 0.0 0.0 0.0
1277.73235479478 2981.38793519158 -5696.59102322058 0.0 0.0 0.0 0.0 0.0 0.0
-12115.5337202686 -2823.24645810806 -5638.05384452746 0.0 0.0 0.0 0.0 0.0 0.0
-12149.2502542744 -2901.9183707882 -1821.1069907904 0.0 0.0 0.0 0.0 0.0 0.0
1210.06373380532 2823.50190981739 -1826.72641312469 0.0 0.0 0.0 0.0 0.0 0.0
1243.78026781109 2902.17382249752 -5643.67326686175 0.0 0.0 0.0 0.0 0.0 0.0
-11783.138429792 -2745.01330315287 -5585.67474691784 0.0 0.0 0.0 0.0 0.0 0.0
-11816.7687986566 -2823.48416383693 -1873.3327991389 0.0 0.0 0.0 0.0 0.0 0.0
1176.42801856972 2745.02875783148 -1878.93786061633 0.0 0.0 0.0 0.0 0.0 0.0
1210.05838743432 2823.49961851553 -5591.27980839527 0.0 0.0 0.0 0.0 0.0 0.0
-11450.8234113679 -2666.65042642752 -5533.43851903766 0.0 0.0 0.0 0.0 0.0 0.0
-11484.4283060872 -2745.06184743908 -1925.65434502363 0.0 0.0 0.0 0.0 0.0 0.0
1142.81630296194 2666.61441358198 -1931.25516081017 0.0 0.0 0.0 0.0 0.0 0.0
1176.42119768118 2745.02583459353 -5539.0393348242 0.0 0.0 0.0 0.0 0.0 0.0
-11118.5020580662 -2588.23631257295 -5481.21846983916 0.0 0.0 0.0 0.0 0.0 0.0
-11152.1040851153 -2666.64104235403 -1977.98689213092 0.0 0.0 0.0 0.0 0.0 0.0
1109.20643686365 2588.20632420836 -1983.58722997242 0.0 0.0 0.0 0.0 0.0 0.0
1142.80846391268 2666.61105398944 -5486.81880768067 0.0 0.0 0.0 0.0 0.0 0.0
-10786.1564732563 -2509.80635155736 -5428.98051218703 0.0 0.0 0.0 0.0 0.0 0.0
-10819.7632496607 -2588.22216316739 -2030.30752319941 0.0 0.0 0.0 0.0 0.0 0.0
1075.592211796 2509.78732031403 -2035.90865260012 0.0 0.0 0.0 0.0 0.0 0.0
1109.19898820031 2588.20313192407 -5434.58164158775 0.0 0.0 0.0 0.0 0.0 0.0
-10453.7890659478 -2431.37608443333 -5376.72234198639 0.0 0.0 0.0 0.0 0.0 0.0
-10487.4038019159 -2509.81046835885 -2082.61453273803 0.0 0.0 0.0 0.0 0.0 0.0
1041.97353045333 2431.35124551368 -2088.21698873271 0.0 0.0 0.0 0.0 0.0 0.0
1075.58826642141 2509.7856294392 -5382.32479798107 0.0 0.0 0.0 0.0 0.0 0.0
-10121.4042126074 -2352.95350151232 -5324.44944456213 0.0 0.0 0.0 0.0 0.0 0.0
-10155.0303333916 -2431.4144500089 -2134.91137090128 0.0 0.0 0.0 0.0 0.0 0.0
1008.3529244214 2352.89266048239 -2140.51572436532 0.0 0.0 0.0 0.0 0.0 0.0
1041.97904520565 2431.35360897896 -5330.05379802618 0.0 0.0 0.0 0.0 0.0 0.0
-9789.00207641817 -2274.54519702028 -5272.16707510821 0.0 0.0 0.0 0.0 0.0 0.0
-9822.64530518514 -2353.04606414321 -2187.20124322007 0.0 0.0 0.0 0.0 0.0 0.0
974.735106423349 2274.402683689 -2192.80844801456 0.0 0.0 0.0 0.0 0.0 0.0
1008.37833519032 2352.90355081192 -5277.77427990271 0.0 0.0 0.0 0.0 0.0 0.0
-9456.576492007 -2196.15942992401 -5219.87840023522 0.0 0.0 0.0 0.0 0.0 0.0
-9490.24596381965 -2274.7215308202 -2239.48582109749 0.0 0.0 0.0 0.0 0.0 0.0
941.128063162441 2195.86733788641 -2245.09739973293 0.0 0.0 0.0 0.0 0.0 0.0
974.797534975095 2274.4294387826 -5225.48997887067 0.0 0.0 0.0 0.0 0.0 0.0
-9124.11362939381 -2117.80767320913 -5167.58462089591 0.0 0.0 0.0 0.0 0.0 0.0
-9157.82257644492 -2196.46188299507 -2291.76527770416 0.0 0.0 0.0 0.0 0.0 0.0
907.545124726194 2117.26713179256 -2297.38343554601 0.0 0.0 0.0 0.0 0.0 0.0
941.254071777311 2195.9213415785 -5173.20277873776 0.0 0.0 0.0 0.0 0.0 0.0
-8791.59037622816 -2039.50522575931 -5115.28552298623 0.0 0.0 0.0 0.0 0.0 0.0
-8825.35630354799 -2118.29238950557 -2344.03862351315 0.0 0.0 0.0 0.0 0.0 0.0
874.007844607792 2038.57795970405 -2349.66627806645 0.0 0.0 0.0 0.0 0.0 0.0
907.773771927617 2117.36512345031 -5120.91317753953 0.0 0.0 0.0 0.0 0.0 0.0
-8458.97244216993 -1961.27073462926 -5062.98002121074 0.0 0.0 0.0 0.0 0.0 0.0
-8492.81622153457 -2040.23955314674 -2396.30407551893 0.0 0.0 0.0 0.0 0.0 0.0
840.549588386789 1959.77436539098 -2401.94470541304 0.0 0.0 0.0 0.0 0.0 0.0
874.393367751425 2038.74318390846 -5068.62065110484 0.0 0.0 0.0 0.0 0.0 0.0
-8126.21289050694 -1883.12383984919 -5010.66670090994 0.0 0.0 0.0 0.0 0.0 0.0
-8160.15565198741 -1962.32361663696 -2448.55950700163 0.0 0.0 0.0 0.0 0.0 0.0
807.219526691646 1880.83717422549 -2454.21663391504 0.0 0.0 0.0 0.0 0.0 0.0
841.16228817212 1960.03695101327 -5016.32382782335 0.0 0.0 0.0 0.0 0.0 0.0
-7793.25258486117 -1805.07944501142 -4958.34453111805 0.0 0.0 0.0 0.0 0.0 0.0
-7827.3085565818 -1884.54337902623 -2500.80316551856 0.0 0.0 0.0 0.0 0.0 0.0
774.086223016455 1801.76866937302 -2506.47916080533 0.0 0.0 0.0 0.0 0.0 0.0
808.142194737085 1881.23260338783 -4964.02052640482 0.0 0.0 0.0 0.0 0.0 0.0
-7460.02518942686 -1727.13622167411 -4906.0140062093 0.0 0.0 0.0 0.0 0.0 0.0
-7494.18764434718 -1806.8486164882 -2553.03494168861 0.0 0.0 0.0 0.0 0.0 0.0
741.2390814752 1722.61998029282 -2558.72868417533 0.0 0.0 0.0 0.0 0.0 0.0
775.401536395523 1802.33237510691 -4911.70774869602 0.0 0.0 0.0 0.0 0.0 0.0
-7126.47110547637 -1649.255814115 -4853.6790457408 0.0 0.0 0.0 0.0 0.0 0.0
-7160.687285829 -1729.09356827114 -2605.25856872465 0.0 0.0 0.0 0.0 0.0 0.0
708.784383727512 1643.53714725308 -2610.96126545009 0.0 0.0 0.0 0.0 0.0 0.0
743.000564080144 1723.37490140922 -4859.38174246623 0.0 0.0 0.0 0.0 0.0 0.0
-6792.56725796205 -1571.32784204244 -4801.3500635037 0.0 0.0 0.0 0.0 0.0 0.0
-6826.69661715314 -1650.96301348832 -2657.48524533845 0.0 0.0 0.0 0.0 0.0 0.0
676.830246425193 1564.83421375954 -2663.1734718703 0.0 0.0 0.0 0.0 0.0 0.0
710.959605616283 1644.46938520541 -4807.03829003555 0.0 0.0 0.0 0.0 0.0 0.0
-6458.38309199977 -1493.11435985116 -4749.04870130594 0.0 0.0 0.0 0.0 0.0 0.0
-6492.13164146659 -1571.86097527374 -2709.7392963961 0.0 0.0 0.0 0.0 0.0 0.0
645.451275717883 1487.10313209103 -2715.36405464057 0.0 0.0 0.0 0.0 0.0 0.0
679.199825184706 1565.84974751362 -4754.67345955041 0.0 0.0 0.0 0.0 0.0 0.0
-6124.17744968211 -1414.16632165182 -4696.81479868587 0.0 0.0 0.0 0.0 0.0 0.0
-6156.99995202892 -1490.75216046105 -2762.06661274957 0.0 0.0 0.0 0.0 0.0 0.0
614.61869874813 1411.3701184434 -2767.53702980737 0.0 0.0 0.0 0.0 0.0 0.0
647.441201094941 1487.95595725263 -4702.28521574367 0.0 0.0 0.0 0.0 0.0 0.0
-5790.55571780374 -1333.7046315074 -4644.71624054067 0.0 0.0 0.0 0.0 0.0 0.0
-5821.51797493935 -1405.94989815715 -2814.54677805766 0.0 0.0 0.0 0.0 0.0 0.0
584.075143751201 1339.30429556737 -2819.70715424693 0.0 0.0 0.0 0.0 0.0 0.0
615.037400886806 1411.54956221712 -4649.87661672994 0.0 0.0 0.0 0.0 0.0 0.0
-5458.71048579757 -1250.46097423924 -4592.86246759607 0.0 0.0 0.0 0.0 0.0 0.0
-5486.30794063587 -1314.85503552861 -2867.31015699294 0.0 0.0 0.0 0.0 0.0 0.0
553.125146475102 1273.47343037609 -2871.90973279932 0.0 0.0 0.0 0.0 0.0 0.0
580.722601313404 1337.86749166546 -4597.46204340246 0.0 0.0 0.0 0.0 0.0 0.0
-5130.76912325013 -1162.48125664901 -4541.42291745345 0.0 0.0 0.0 0.0 0.0 0.0
-5152.70865348575 -1213.67349386547 -2920.56225758636 0.0 0.0 0.0 0.0 0.0 0.0
520.303656049063 1217.61749593517 -2924.21884595896 0.0 0.0 0.0 0.0 0.0 0.0
542.243186284688 1268.80973315163 -4545.07950582605 0.0 0.0 0.0 0.0 0.0 0.0
-4810.26265997072 -1066.91092521617 -4490.6531582622 0.0 0.0 0.0 0.0 0.0 0.0
-4823.23703793041 -1097.18447378878 -2974.62050707319 0.0 0.0 0.0 0.0 0.0 0.0
482.877241231135 1176.86450299474 -2976.78290339981 0.0 0.0 0.0 0.0 0.0 0.0
495.851619190823 1207.13805156735 -4492.81555458882 0.0 0.0 0.0 0.0 0.0 0.0
-4502.70204477976 -959.812333867067 -4440.93537908564 0.0 0.0 0.0 0.0 0.0 0.0
-4502.22927779727 -958.709210907934 -3029.97544791382 0.0 0.0 0.0 0.0 0.0 0.0
436.130481304089 1157.73068584979 -3029.89665341674 0.0 0.0 0.0 0.0 0.0 0.0
435.657714321604 1156.62756289066 -4440.85658458856 0.0 0.0 0.0 0.0 0.0 0.0
-4216.18266310657 -836.117804611919 -4392.84858870935 0.0 0.0 0.0 0.0 0.0 0.0
-4196.65797407179 -790.560196864111 -3087.40307885885 0.0 0.0 0.0 0.0 0.0 0.0
372.40131040495 1167.60806791164 -3084.14896401972 0.0 0.0 0.0 0.0 0.0 0.0
352.876621370175 1122.05046016383 -4389.59447387022 0.0 0.0 0.0 0.0 0.0 0.0
-3961.80614460013 -689.909412804826 -4347.30028545107 0.0 0.0 0.0 0.0 0.0 0.0
-3917.04239968625 -585.460674672445 -3148.18240618441 0.0 0.0 0.0 0.0 0.0 0.0
279.870177747076 1213.21614422755 -3140.72178203209 0.0 0.0 0.0 0.0 0.0 0.0
235.106432833199 1108.76740609517 -4339.83966129876 0.0 0.0 0.0 0.0 0.0 0.0
-3753.46197096175 -515.354776647656 -4305.77594091484 0.0 0.0 0.0 0.0 0.0 0.0
-3678.20568719909 -339.756781201468 -3214.51310645943 0.0 0.0 0.0 0.0 0.0 0.0
141.214233394825 1297.13747048164 -3201.97039249899 0.0 0.0 0.0 0.0 0.0 0.0
65.9579496321732 1121.53947503545 -4293.23322695439 0.0 0.0 0.0 0.0 0.0 0.0
-3606.07893969265 -308.845317984421 -4270.78245277183 0.0 0.0 0.0 0.0 0.0 0.0
-3499.33004943202 -59.7645740429441 -3290.26271608869 0.0 0.0 0.0 0.0 0.0 0.0
-67.5109710410502 1411.01503098176 -3272.47123437859 0.0 0.0 0.0 0.0 0.0 0.0
-174.259861301683 1161.93428704028 -4252.99097106172 0.0 0.0 0.0 0.0 0.0 0.0
-3530.76090666254 -73.234941427452 -4246.51972889425 0.0 0.0 0.0 0.0 0.0 0.0
-3402.25060244288 226.622435085085 -3382.10888671631 0.0 0.0 0.0 0.0 0.0 0.0
-376.81265482008 1523.238698352 -3360.6905026797 0.0 0.0 0.0 0.0 0.0 0.0
-505.322959039739 1223.38132183946 -4225.10134485764 0.0 0.0 0.0 0.0 0.0 0.0
-3524.37005601042 174.285526413279 -4239.53552867201 0.0 0.0 0.0 0.0 0.0 0.0
-3406.19142219407 450.035671984758 -3500.67143309703 0.0 0.0 0.0 0.0 0.0 0.0
-820.167087681627 1558.33181534724 -3480.97499412763 0.0 0.0 0.0 0.0 0.0 0.0
-938.345721497975 1282.58166977576 -4219.83908970262 0.0 0.0 0.0 0.0 0.0 0.0
-3551.22033579629 387.880423298096 -4258.17624506441 0.0 0.0 0.0 0.0 0.0 0.0
-3516.47291642575 468.957735162679 -3659.60405716025 0.0 0.0 0.0 0.0 0.0 0.0
-1421.47025876119 1366.81601701892 -3653.8128205985 0.0 0.0 0.0 0.0 0.0 0.0
-1456.21767813173 1285.73870515434 -4252.38500850266 0.0 0.0 0.0 0.0 0.0 0.0
-3519.3411968195 467.72847213679 -4307.33911709295 0.0 0.0 0.0 0.0 0.0 0.0
-3705.36568910971 33.6713234596202 -3866.91772870773 0.0 0.0 0.0 0.0 0.0 0.0
-2163.89082976143 694.303406037456 -3897.9218107561 0.0 0.0 0.0 0.0 0.0 0.0
-1977.86633747121 1128.36055471463 -4338.34319914132 0.0 0.0 0.0 0.0 0.0 0.0
-3269.8456768035 220.322757305141 -4371.23237757312 0.0 0.0 0.0 0.0 0.0 0.0
-3888.23787023107 -1222.59236069252 -4098.16068419081 0.0 0.0 0.0 0.0 0.0 0.0
-2932.48694339297 -812.984820619053 -4201.22604976207 0.0 0.0 0.0 0.0 0.0 0.0
-2314.0947499654 629.930297378612 -4474.29774314439 0.0 0.0 0.0 0.0 0.0 0.0
-2626.56683175485 -681.876201345575 -4375.02638574902 0.0 0.0 0.0 0.0 0.0 0.0
-3910.91844015215 -3678.69662093927 -4243.47481338721 0.0 0.0 0.0 0.0 0.0 0.0
-3450.48793688581 -3481.36926239655 -4457.53341478676 0.0 0.0 0.0 0.0 0.0 0.0
-2166.13632848851 -484.548842802859 -4589.08498714857 0.0 0.0 0.0 0.0 0.0 0.0
-1566.34347036444 -2673.87877674454 -4128.14767017689 0.0 0.0 0.0 0.0 0.0 0.0
-3581.9240136536 -7376.90004441926 -4047.2508314581 0.0 0.0 0.0 0.0 0.0 0.0
-3298.78507813782 -7255.55478634106 -4383.18092200629 0.0 0.0 0.0 0.0 0.0 0.0
-1283.20453484865 -2552.53351866634 -4464.07776072509 0.0 0.0 0.0 0.0 0.0 0.0
-482.232102779713 -6048.46065404473 -3294.79680334545 0.0 0.0 0.0 0.0 0.0 0.0
-2789.00654513009 -11430.9343528623 -3119.02647725959 0.0 0.0 0.0 0.0 0.0 0.0
-2173.81040382957 -11167.2788637335 -3503.48888431799 0.0 0.0 0.0 0.0 0.0 0.0
132.964038520802 -5784.80516491594 -3679.25921040385 0.0 0.0 0.0 0.0 0.0 0.0
-240.551363551124 -10338.7392750427 -1495.95817248528 0.0 0.0 0.0 0.0 0.0 0.0
-1710.59226667867 -13768.8347156737 -1122.6901610699 0.0 0.0 0.0 0.0 0.0 0.0
-404.154226724855 -13208.9326985506 -1367.69697825782 0.0 0.0 0.0 0.0 0.0 0.0
1065.88667640269 -9778.83725791965 -1740.9649896732 0.0 0.0 0.0 0.0 0.0 0.0
4.39834617579144E-05 1.88500550391062E-05 -187.328260574166 0.0 0.0 0.0 0.0 0.0 0.0
-666.202999363371 -1554.47374895922 3830.72514359257 0.0 0.0 0.0 0.0 0.0 0.0
13396.9839152202 4472.60635729089 3719.69130303477 0.0 0.0 0.0 0.0 0.0 0.0
14063.1869585671 6027.08012510017 -298.362101131971 0.0 0.0 0.0 0.0 0.0 0.0
-666.202970444073 -1554.47373656524 -3896.37227102643 0.0 0.0 0.0 0.0 0.0 0.0
-1188.81658018942 -2773.90549263772 658.683934280657 0.0 0.0 0.0 0.0 0.0 0.0
14753.8801383854 4058.6788153229 571.581665989765 0.0 0.0 0.0 0.0 0.0 0.0
15276.4937481307 5278.11057139539 -3983.47453931732 0.0 0.0 0.0 0.0 0.0 0.0
-1188.81655333299 -2773.90548112782 -5769.97298775202 0.0 0.0 0.0 0.0 0.0 0.0
-1478.1559635755 -3449.03077169367 -899.371055320437 0.0 0.0 0.0 0.0 0.0 0.0
15568.950799935 3856.8721269537 -947.594290360856 0.0 0.0 0.0 0.0 0.0 0.0
15858.2902101775 4531.99741751955 -5818.19622279244 0.0 0.0 0.0 0.0 0.0 0.0
-1478.15593782367 -3449.03076065717 -6438.23043439867 0.0 0.0 0.0 0.0 0.0 0.0
-1577.23714368847 -3680.22024100837 -1486.1344931359 0.0 0.0 0.0 0.0 0.0 0.0
15755.0986507312 3747.92367088577 -1502.64802744671 0.0 0.0 0.0 0.0 0.0 0.0
15854.179856596 3979.11315123698 -6454.74396870947 0.0 0.0 0.0 0.0 0.0 0.0
-1577.23712561405 -3680.22023326219 -6506.51701380856 0.0 0.0 0.0 0.0 0.0 0.0
-1571.58447145497 -3667.03070689101 -1623.77716663763 0.0 0.0 0.0 0.0 0.0 0.0
15518.0049936433 3657.07906386537 -1622.83505761112 0.0 0.0 0.0 0.0 0.0 0.0
15512.3523394842 3643.8895374942 -6505.57490478204 0.0 0.0 0.0 0.0 0.0 0.0
-1571.58447656065 -3667.03070907916 -6364.69111542501 0.0 0.0 0.0 0.0 0.0 0.0
-1526.57054251614 -3561.99819630864 -1613.69149697914 0.0 0.0 0.0 0.0 0.0 0.0
15101.9281220444 3564.50123136016 -1606.18917463839 0.0 0.0 0.0 0.0 0.0 0.0
15056.9141879999 3459.46871858964 -6357.18879308425 0.0 0.0 0.0 0.0 0.0 0.0
-1526.57059935889 -3561.99822066982 -6195.46394263852 0.0 0.0 0.0 0.0 0.0 0.0
-1474.9818693742 -3441.62451737221 -1586.23150665432 0.0 0.0 0.0 0.0 0.0 0.0
14657.3316565705 3472.22413660409 -1577.6333849902 0.0 0.0 0.0 0.0 0.0 0.0
14605.7429265858 3351.85043330647 -6186.8658209744 0.0 0.0 0.0 0.0 0.0 0.0
-1474.98202606898 -3441.62458452711 -6056.74637602749 0.0 0.0 0.0 0.0 0.0 0.0
-1427.68420870809 -3331.26301068504 -1580.1066105599 0.0 0.0 0.0 0.0 0.0 0.0
14240.5549704285 3383.69663751634 -1572.22364099975 0.0 0.0 0.0 0.0 0.0 0.0
14193.2571530676 3273.33506367428 -6048.86340646734 0.0 0.0 0.0 0.0 0.0 0.0
-1427.68454149821 -3331.26315330938 -5952.94504065961 0.0 0.0 0.0 0.0 0.0 0.0
-1385.84267305433 -3233.63212694034 -1597.65497468395 0.0 0.0 0.0 0.0 0.0 0.0
13857.6725578605 3299.30297202315 -1590.68132994331 0.0 0.0 0.0 0.0 0.0 0.0
13815.8306894166 3201.67194565411 -5945.97139591897 0.0 0.0 0.0 0.0 0.0 0.0
-1385.84329633252 -3233.63239405957 -5873.69811076108 0.0 0.0 0.0 0.0 0.0 0.0
-1347.90199825868 -3145.10269855394 -1631.74009740421 0.0 0.0 0.0 0.0 0.0 0.0
13498.9510484904 3217.83432148137 -1625.41654772524 0.0 0.0 0.0 0.0 0.0 0.0
13461.0097504165 3129.30462597574 -5867.37456108211 0.0 0.0 0.0 0.0 0.0 0.0
-1347.90307436776 -3145.10315974354 -5808.66788111109 0.0 0.0 0.0 0.0 0.0 0.0
-1312.23375091184 -3061.87473834641 -1675.40165568681 0.0 0.0 0.0 0.0 0.0 0.0
13154.1980380731 3138.02459979002 -1669.45676844415 0.0 0.0 0.0 0.0 0.0 0.0
13118.5287146172 3054.79617839288 -5802.72299386844 0.0 0.0 0.0 0.0 0.0 0.0
-1312.23549603984 -3061.87548625841 -5750.93329877026 0.0 0.0 0.0 0.0 0.0 0.0
-1277.73754698269 -2981.38027179171 -1723.98883203761 0.0 0.0 0.0 0.0 0.0 0.0
12816.5680865816 3059.03642830727 -1718.23917386142 0.0 0.0 0.0 0.0 0.0 0.0
12782.0701375244 2978.54121384057 -5745.18364059407 0.0 0.0 0.0 0.0 0.0 0.0
-1277.74022597152 -2981.38141992978 -5696.59085324032 0.0 0.0 0.0 0.0 0.0 0.0
-1243.78935354503 -2902.16271760131 -1774.87314156729 0.0 0.0 0.0 0.0 0.0 0.0
12482.2226373106 2980.41384990824 -1769.21466282954 0.0 0.0 0.0 0.0 0.0 0.0
12448.2717648841 2901.19514757976 -5690.93237450257 0.0 0.0 0.0 0.0 0.0 0.0
-1243.79325093567 -2902.16438791158 -5643.67295414811 0.0 0.0 0.0 0.0 0.0 0.0
-1210.07327988745 -2823.48445546574 -1826.72588040734 0.0 0.0 0.0 0.0 0.0 0.0
12149.2414782052 2901.93615514542 -1821.10588523264 0.0 0.0 0.0 0.0 0.0 0.0
12115.521507157 2823.25622269958 -5638.0529589734 0.0 0.0 0.0 0.0 0.0 0.0
-1210.07862625845 -2823.4867467676 -5591.27927567792 0.0 0.0 0.0 0.0 0.0 0.0
-1176.44428135026 -2745.00660864848 -1878.93700652456 0.0 0.0 0.0 0.0 0.0 0.0
11816.7536606865 2823.50679508154 -1873.33128237319 0.0 0.0 0.0 0.0 0.0 0.0
11783.1193157783 2745.02665696243 -5585.67355152655 0.0 0.0 0.0 0.0 0.0 0.0
-1176.4511022388 -2745.00953188643 -5539.03848073243 0.0 0.0 0.0 0.0 0.0 0.0
-1142.84237734698 -2666.5891738055 -1931.25386379902 0.0 0.0 0.0 0.0 0.0 0.0
11484.40378192 2745.08775159463 -1925.65240965038 0.0 0.0 0.0 0.0 0.0 0.0
11450.7950570282 2666.66739351371 -5533.43702658379 0.0 0.0 0.0 0.0 0.0 0.0
-1142.85021639624 -2666.59253339804 -5486.81751066952 0.0 0.0 0.0 0.0 0.0 0.0
-1109.24603396466 -2588.18277439104 -1983.58536442302 0.0 0.0 0.0 0.0 0.0 0.0
11152.066477898 2666.6654449787 -1977.98466735109 0.0 0.0 0.0 0.0 0.0 0.0
11118.4622954665 2588.25568597169 -5481.21681359759 0.0 0.0 0.0 0.0 0.0 0.0
-1109.25348262801 -2588.18596667533 -5434.57977603835 0.0 0.0 0.0 0.0 0.0 0.0
-1075.6491674375 -2509.77589789748 -2035.90612739309 0.0 0.0 0.0 0.0 0.0 0.0
10819.7086028209 2588.23457507042 -2030.30540819468 0.0 0.0 0.0 0.0 0.0 0.0
10786.1042876304 2509.82450629257 -5428.97905683993 0.0 0.0 0.0 0.0 0.0 0.0
-1075.6531128121 -2509.77758877231 -5382.32227277404 0.0 0.0 0.0 0.0 0.0 0.0
-1042.05062780222 -2431.37179041591 -2088.21382417151 0.0 0.0 0.0 0.0 0.0 0.0
10487.3289423066 2509.79088248787 -2082.6134100032 0.0 0.0 0.0 0.0 0.0 0.0
10453.7264572967 2431.38508413148 -5376.72185860572 0.0 0.0 0.0 0.0 0.0 0.0
-1042.04511304989 -2431.36942695063 -5330.05063346498 0.0 0.0 0.0 0.0 0.0 0.0
-1008.44954578536 -2352.97977000006 -2140.51219069056 0.0 0.0 0.0 0.0 0.0 0.0
10154.9350039251 2431.32789416156 -2134.9129294798 0.0 0.0 0.0 0.0 0.0 0.0
10121.3394366605 2352.93823721098 -5324.45137225422 0.0 0.0 0.0 0.0 0.0 0.0
-1008.42413501645 -2352.96887967052 -5277.77074622795 0.0 0.0 0.0 0.0 0.0 0.0
-974.843004711234 -2274.61290895836 -2192.80529760754 0.0 0.0 0.0 0.0 0.0 0.0
9822.53606546019 2352.83526397225 -2187.20844255667 0.0 0.0 0.0 0.0 0.0 0.0
9788.95493515498 2274.47929326008 -5272.17389117708 0.0 0.0 0.0 0.0 0.0 0.0
-974.780576159488 -2274.58615386476 -5225.48682846364 0.0 0.0 0.0 0.0 0.0 0.0
-941.224273214957 -2196.28811366085 -2245.09623429286 0.0 0.0 0.0 0.0 0.0 0.0
9490.14280638279 2274.29777759533 -2239.50351713543 0.0 0.0 0.0 0.0 0.0 0.0
9456.58650343826 2195.99973739142 -5219.89411130621 0.0 0.0 0.0 0.0 0.0 0.0
-941.098264600087 -2196.23410996876 -5173.20161329768 0.0 0.0 0.0 0.0 0.0 0.0
-907.580753770716 -2118.02658470023 -2297.38725634247 0.0 0.0 0.0 0.0 0.0 0.0
9157.76949557254 2195.69495073259 -2291.80100453757 0.0 0.0 0.0 0.0 0.0 0.0
9124.25198474317 2117.48742546406 -5167.61536149279 0.0 0.0 0.0 0.0 0.0 0.0
-907.352106569293 -2117.92859304248 -5120.91699833599 0.0 0.0 0.0 0.0 0.0 0.0
-873.891273256961 -2039.85331531371 -2349.68026623557 0.0 0.0 0.0 0.0 0.0 0.0
8825.43728909451 2117.00178283692 -2344.10346068351 0.0 0.0 0.0 0.0 0.0 0.0
8791.97645578218 2038.92650510815 -5115.34019278393 0.0 0.0 0.0 0.0 0.0 0.0
-873.505750113328 -2039.68809110929 -5068.63463927396 0.0 0.0 0.0 0.0 0.0 0.0
-840.122647878981 -1961.79418589582 -2401.97726028504 0.0 0.0 0.0 0.0 0.0 0.0
8493.17817858227 2038.19188258758 -2396.41340991265 0.0 0.0 0.0 0.0 0.0 0.0
8459.79507634793 1960.2979773741 -5063.07078890157 0.0 0.0 0.0 0.0 0.0 0.0
-839.509948093651 -1961.53160027353 -5016.35638269536 0.0 0.0 0.0 0.0 0.0 0.0
-806.225797404722 -1883.86858199937 -2454.28064375354 0.0 0.0 0.0 0.0 0.0 0.0
8161.03928889161 1959.24502641335 -2448.73328530538 0.0 0.0 0.0 0.0 0.0 0.0
8127.75513820268 1881.58200813918 -5010.8090242472 0.0 0.0 0.0 0.0 0.0 0.0
-805.303129359284 -1883.47315283704 -4964.08453624332 0.0 0.0 0.0 0.0 0.0 0.0
-772.132235502986 -1806.07440050567 -2506.59336567781 0.0 0.0 0.0 0.0 0.0 0.0
7829.08686147632 1880.1623553426 -2501.06488336843 0.0 0.0 0.0 0.0 0.0 0.0
7795.91596762002 1802.76360301124 -4958.55605393394 0.0 0.0 0.0 0.0 0.0 0.0
-770.816922123918 -1805.51069477179 -4911.82195356851 0.0 0.0 0.0 0.0 0.0 0.0
-737.752701443554 -1728.3608465176 -2558.9187751559 0.0 0.0 0.0 0.0 0.0 0.0
7497.40842300054 1800.99392110129 -2553.40807170917 0.0 0.0 0.0 0.0 0.0 0.0
7464.34420232018 1723.84407284711 -4906.31125012178 0.0 0.0 0.0 0.0 0.0 0.0
-735.991218838609 -1727.6059254012 -4859.5718334468 0.0 0.0 0.0 0.0 0.0 0.0
-702.981242158306 -1650.58264648049 -2611.2599915125 0.0 0.0 0.0 0.0 0.0 0.0
7166.11020461174 1721.88511642096 -2605.75832873245 0.0 0.0 0.0 0.0 0.0 0.0
7133.10022793143 1644.86183750025 -4854.07017066675 0.0 0.0 0.0 0.0 0.0 0.0
-700.806020269535 -1649.65040852816 -4807.33701609796 0.0 0.0 0.0 0.0 0.0 0.0
-667.71045779437 -1572.42742941944 -2663.61842032718 0.0 0.0 0.0 0.0 0.0 0.0
6835.30462740339 1643.15046423674 -2658.10249324799 0.0 0.0 0.0 0.0 0.0 0.0
6802.20906492823 1565.92748512802 -4801.82108901877 0.0 0.0 0.0 0.0 0.0 0.0
-665.340879034858 -1571.41189566537 -4755.11840800729 0.0 0.0 0.0 0.0 0.0 0.0
-631.86717294686 -1493.30658146004 -2715.99084006563 0.0 0.0 0.0 0.0 0.0 0.0
6505.07931484892 1565.38477045244 -2710.41188905096 0.0 0.0 0.0 0.0 0.0 0.0
6471.60560876093 1487.27945624711 -4749.53945699263 0.0 0.0 0.0 0.0 0.0 0.0
-629.877247569803 -1492.45375629844 -4702.91200116873 0.0 0.0 0.0 0.0 0.0 0.0
-595.48273124759 -1412.19988487995 -2768.36426934219 0.0 0.0 0.0 0.0 0.0 0.0
6175.43433014528 1489.62171285986 -2762.63184995516 0.0 0.0 0.0 0.0 0.0 0.0
6141.03981382307 1409.36784144136 -4697.17958178169 0.0 0.0 0.0 0.0 0.0 0.0
-595.064029108914 -1412.02044110623 -4650.70385626476 0.0 0.0 0.0 0.0 0.0 0.0
-558.818496377834 -1327.44753140037 -2820.70773961497 0.0 0.0 0.0 0.0 0.0 0.0
5846.16791189644 1417.54664357432 -2814.66681749312 0.0 0.0 0.0 0.0 0.0 0.0
5809.92237916536 1332.97373386846 -4644.66293414292 0.0 0.0 0.0 0.0 0.0 0.0
-562.17103881563 -1328.88433530229 -4598.4626287705 0.0 0.0 0.0 0.0 0.0 0.0
-522.574595534487 -1236.49263431295 -2872.96051154944 0.0 0.0 0.0 0.0 0.0 0.0
5516.68281473921 1351.76054151863 -2866.36110433592 0.0 0.0 0.0 0.0 0.0 0.0
5477.08637145807 1259.3688405293 -4591.86322155698 0.0 0.0 0.0 0.0 0.0 0.0
-533.4565557249 -1241.15633153741 -4546.13028457618 0.0 0.0 0.0 0.0 0.0 0.0
-488.217183804525 -1135.59779705654 -2925.01803465105 0.0 0.0 0.0 0.0 0.0 0.0
5185.67569093343 1296.07057783115 -2917.47813933099 0.0 0.0 0.0 0.0 0.0 0.0
5140.43631901305 1190.51204335028 -4538.59038925611 0.0 0.0 0.0 0.0 0.0 0.0
-512.669220662766 -1146.07724142436 -4493.6147432809 0.0 0.0 0.0 0.0 0.0 0.0
-458.463607296673 -1019.59747690347 -2976.72182776276 0.0 0.0 0.0 0.0 0.0 0.0
4850.66159701683 1255.74189637374 -2967.68755886841 0.0 0.0 0.0 0.0 0.0 0.0
4796.45598365074 1129.26213185286 -4484.58047438655 0.0 0.0 0.0 0.0 0.0 0.0
-505.683134206204 -1039.83441700756 -4440.79550895151 0.0 0.0 0.0 0.0 0.0 0.0
-437.960060544399 -881.813911796679 -3027.87082597921 0.0 0.0 0.0 0.0 0.0 0.0
4507.27632985866 1237.57311266177 -3016.58364703557 0.0 0.0 0.0 0.0 0.0 0.0
4439.55325619685 1079.55260745089 -4429.50833000788 0.0 0.0 0.0 0.0 0.0 0.0
-521.213920478312 -917.494137482642 -4387.56864643269 0.0 0.0 0.0 0.0 0.0 0.0
-434.162269903145 -714.37361947392 -3078.29533805174 0.0 0.0 0.0 0.0 0.0 0.0
4148.29430943017 1249.5363430975 -3063.78672962255 0.0 0.0 0.0 0.0 0.0 0.0
4061.24265885501 1046.41582508878 -4373.06003800349 0.0 0.0 0.0 0.0 0.0 0.0
-571.457147474897 -773.214281290385 -4333.98603533077 0.0 0.0 0.0 0.0 0.0 0.0
-458.368226432868 -509.340132192316 -3128.07906043369 0.0 0.0 0.0 0.0 0.0 0.0
3762.30618570693 1299.52033015331 -3109.23090692668 0.0 0.0 0.0 0.0 0.0 0.0
3649.2172646649 1035.64618105524 -4315.13788182377 0.0 0.0 0.0 0.0 0.0 0.0
-672.280454547771 -601.016801384417 -4280.59050535599 0.0 0.0 0.0 0.0 0.0 0.0
-526.721598930831 -261.379471611559 -3178.08810366668 0.0 0.0 0.0 0.0 0.0 0.0
3332.03680698177 1392.37413092241 -3153.82829439719 0.0 0.0 0.0 0.0 0.0 0.0
3186.47795136483 1052.73680114956 -4256.3306960865 0.0 0.0 0.0 0.0 0.0 0.0
-842.19569362734 -396.58265505292 -4229.10868222941 0.0 0.0 0.0 0.0 0.0 0.0
-660.749325493821 26.792203925291 -3231.06355940892 0.0 0.0 0.0 0.0 0.0 0.0
2832.40860437787 1523.85988815602 -3200.82249805334 0.0 0.0 0.0 0.0 0.0 0.0
2650.96223624435 1100.4850291778 -4198.86762087382 0.0 0.0 0.0 0.0 0.0 0.0
-1098.56131349251 -160.841505217004 -4183.69366988798 0.0 0.0 0.0 0.0 0.0 0.0
-886.516968263364 333.928633651002 -3293.59571368785 0.0 0.0 0.0 0.0 0.0 0.0
2228.8258784371 1669.0755679512 -3258.25498948299 0.0 0.0 0.0 0.0 0.0 0.0
2016.78153320795 1174.30542908319 -4148.35294568312 0.0 0.0 0.0 0.0 0.0 0.0
-1448.05003494126 93.2716050747611 -4152.74430071077 0.0 0.0 0.0 0.0 0.0 0.0
-1230.63157003976 600.581356511587 -3379.05387860124 0.0 0.0 0.0 0.0 0.0 0.0
1477.28490734359 1761.11698967588 -3342.81746778432 0.0 0.0 0.0 0.0 0.0 0.0
1259.86644244209 1253.80723823905 -4116.50788989385 0.0 0.0 0.0 0.0 0.0 0.0
-1866.68216048986 327.988246318687 -4150.46389297626 0.0 0.0 0.0 0.0 0.0 0.0
-1710.04723828799 693.469731456378 -3510.03228929225 0.0 0.0 0.0 0.0 0.0 0.0
531.46337460604 1654.11713698239 -3483.92646892527 0.0 0.0 0.0 0.0 0.0 0.0
374.828452404172 1288.6356518447 -4124.35807260928 0.0 0.0 0.0 0.0 0.0 0.0
-2266.44331699801 455.014269152084 -4194.56266783507 0.0 0.0 0.0 0.0 0.0 0.0
-2311.72689985484 349.352575819492 -3713.95412302701 0.0 0.0 0.0 0.0 0.0 0.0
-629.59699302663 1070.26539303158 -3721.50138683648 0.0 0.0 0.0 0.0 0.0 0.0
-584.313410169805 1175.92708636417 -4202.10993164454 0.0 0.0 0.0 0.0 0.0 0.0
-2461.93082005881 284.979467160647 -4290.3300554153 0.0 0.0 0.0 0.0 0.0 0.0
-2961.04623179996 -879.623160235366 -3995.99944340875 0.0 0.0 0.0 0.0 0.0 0.0
-1930.88908977702 -438.127242225536 -4079.18534536561 0.0 0.0 0.0 0.0 0.0 0.0
-1431.77367803587 726.475385170477 -4373.51595737216 0.0 0.0 0.0 0.0 0.0 0.0
-2194.69561689551 -551.187182419172 -4383.85838079525 0.0 0.0 0.0 0.0 0.0 0.0
-3490.99376401313 -3575.88285902696 -4268.13440182978 0.0 0.0 0.0 0.0 0.0 0.0
-3085.95983763398 -3402.29689057875 -4484.18409301605 0.0 0.0 0.0 0.0 0.0 0.0
-1789.66169051635 -377.601213970964 -4599.90807198152 0.0 0.0 0.0 0.0 0.0 0.0
-1323.71036197597 -2647.04711529675 -4274.67874776811 0.0 0.0 0.0 0.0 0.0 0.0
-3649.93091743586 -8074.8950780365 -4242.02944743501 0.0 0.0 0.0 0.0 0.0 0.0
-3535.65836627003 -8025.92112753686 -4629.73287334499 0.0 0.0 0.0 0.0 0.0 0.0
-1209.43781081013 -2598.07316479711 -4662.38217367809 0.0 0.0 0.0 0.0 0.0 0.0
-218.181800777245 -6604.14545661138 -3538.10773583257 0.0 0.0 0.0 0.0 0.0 0.0
-3206.84278941578 -13577.6877634346 -3395.25678351117 0.0 0.0 0.0 0.0 0.0 0.0
-2706.86445629091 -13363.4113349525 -3893.36694828426 0.0 0.0 0.0 0.0 0.0 0.0
281.796532347622 -6389.8690281293 -4036.21790060565 0.0 0.0 0.0 0.0 0.0 0.0
32.8542908164873 -12189.2461576208 -1632.73288886639 0.0 0.0 0.0 0.0 0.0 0.0
-2209.04153997999 -17420.3364294792 -1228.02724967666 0.0 0.0 0.0 0.0 0.0 0.0
-792.571802815924 -16813.2779706946 -1601.6765548094 0.0 0.0 0.0 0.0 0.0 0.0
1449.32402798055 -11582.1876988362 -2006.38219399914 0.0 0.0 0.0 0.0 0.0 0.0
14063.1869585671 6027.08012510017 -298.362101131971 0.0 0.0 0.0 0.0 0.0 0.0
12032.5270037116 1288.87356377074 3744.52606919357 0.0 0.0 0.0 0.0 0.0 0.0
26182.635599851 7353.20581925906 3406.08274338433 0.0 0.0 0.0 0.0 0.0 0.0
28213.2955547065 12091.4123805885 -636.805426941216 0.0 0.0 0.0 0.0 0.0 0.0
13912.0368366221 2094.37777787524 -3958.63977315851 0.0 0.0 0.0 0.0 0.0 0.0
12337.1037386672 -1580.46611735273 636.308648904947 0.0 0.0 0.0 0.0 0.0 0.0
28419.4232158893 5311.95651574246 373.819799245806 0.0 0.0 0.0 0.0 0.0 0.0
29994.3563138442 8986.80041097043 -4221.12862281765 0.0 0.0 0.0 0.0 0.0 0.0
13441.5138104594 -1107.14751515609 -5753.46923987726 0.0 0.0 0.0 0.0 0.0 0.0
12588.800519927 -3096.81185973182 -853.763023959968 0.0 0.0 0.0 0.0 0.0 0.0
29737.7722756375 4252.74746414411 -995.881905715375 0.0 0.0 0.0 0.0 0.0 0.0
30590.4855661699 6242.41180871984 -5895.58812163266 0.0 0.0 0.0 0.0 0.0 0.0
12874.0295765879 -2974.57083544855 -6360.91270230858 0.0 0.0 0.0 0.0 0.0 0.0
12594.5040401567 -3626.79708712138 -1401.26929434814 0.0 0.0 0.0 0.0 0.0 0.0
29953.2559680183 3812.66802481928 -1447.85688375334 0.0 0.0 0.0 0.0 0.0 0.0
30232.7815044495 4464.89427649212 -6407.50029171378 0.0 0.0 0.0 0.0 0.0 0.0
12351.7577289097 -3730.83122051296 -6404.19617168347 0.0 0.0 0.0 0.0 0.0 0.0
12378.2740975682 -3668.95969364307 -1528.64451490662 0.0 0.0 0.0 0.0 0.0 0.0
29442.7048962872 3644.36779152221 -1524.2251201302 0.0 0.0 0.0 0.0 0.0 0.0
29416.1885276287 3582.49626465232 -6399.77677690705 0.0 0.0 0.0 0.0 0.0 0.0
11917.1832919248 -3866.5700389188 -6262.99825037976 0.0 0.0 0.0 0.0 0.0 0.0
12054.3091372719 -3546.6097331089 -1523.16018187109 0.0 0.0 0.0 0.0 0.0 0.0
28643.7423770523 3563.14736965411 -1500.30587431324 0.0 0.0 0.0 0.0 0.0 0.0
28506.6165317052 3243.1870638442 -6240.14394282191 0.0 0.0 0.0 0.0 0.0 0.0
11558.1239418133 -3759.26053116258 -6103.8368282071 0.0 0.0 0.0 0.0 0.0 0.0
11711.6451001364 -3401.04449507539 -1503.59378521479 0.0 0.0 0.0 0.0 0.0 0.0
27812.4957506095 3499.32006941308 -1478.00692549428 0.0 0.0 0.0 0.0 0.0 0.0
27658.9745922864 3141.10403332589 -6078.24996848659 0.0 0.0 0.0 0.0 0.0 0.0
11247.5705966335 -3599.93356800521 -5974.82380669193 0.0 0.0 0.0 0.0 0.0 0.0
11387.7368275264 -3272.87902925519 -1503.69852954899 0.0 0.0 0.0 0.0 0.0 0.0
27036.6752975267 3433.80888645923 -1480.33749106684 0.0 0.0 0.0 0.0 0.0 0.0
26896.5090666338 3106.75434770921 -5951.46276820978 0.0 0.0 0.0 0.0 0.0 0.0
10963.0125465145 -3454.90372111742 -5877.4462844682 0.0 0.0 0.0 0.0 0.0 0.0
11087.3021880633 -3164.89455750365 -1525.03682473239 0.0 0.0 0.0 0.0 0.0 0.0
26320.7352971386 3363.71963210007 -1504.32188447426 0.0 0.0 0.0 0.0 0.0 0.0
26196.4456555899 3073.7104684863 -5856.73134421008 0.0 0.0 0.0 0.0 0.0 0.0
10690.6393806193 -3334.89290355106 -5801.73005587119 0.0 0.0 0.0 0.0 0.0 0.0
10803.7576558451 -3070.95026135769 -1561.11518057159 0.0 0.0 0.0 0.0 0.0 0.0
25645.9097193936 3289.97205159171 -1542.26213470064 0.0 0.0 0.0 0.0 0.0 0.0
25532.7914441679 3026.02940939834 -5782.87701000023 0.0 0.0 0.0 0.0 0.0 0.0
10423.3353219719 -3233.98840444618 -5738.42162671479 0.0 0.0 0.0 0.0 0.0 0.0
10529.9866780823 -2985.1352401886 -1605.7184647628 0.0 0.0 0.0 0.0 0.0 0.0
24994.4477449143 3213.91950273937 -1587.94323874441 0.0 0.0 0.0 0.0 0.0 0.0
24887.7963888039 2965.0663384818 -5720.64640069639 0.0 0.0 0.0 0.0 0.0 0.0
10157.8587775336 -3144.61862613804 -5681.44533691272 0.0 0.0 0.0 0.0 0.0 0.0
10261.1885697139 -2903.51577771727 -1654.70699192761 0.0 0.0 0.0 0.0 0.0 0.0
24354.7727771618 3136.59173976039 -1637.48535989756 0.0 0.0 0.0 0.0 0.0 0.0
24251.4429849815 2895.48889133962 -5664.22370488266 0.0 0.0 0.0 0.0 0.0 0.0
9892.89224801643 -3061.35705844478 -5627.40019256877 0.0 0.0 0.0 0.0 0.0 0.0
9994.67567930972 -2823.86238542707 -1705.7418757926 0.0 0.0 0.0 0.0 0.0 0.0
23720.4797880263 3058.62508973718 -1688.77797057705 0.0 0.0 0.0 0.0 0.0 0.0
23618.696356733 2821.13041671947 -5610.43628735322 0.0 0.0 0.0 0.0 0.0 0.0
9627.97454915618 -2981.02001263573 -5574.58017193646 0.0 0.0 0.0 0.0 0.0 0.0
9729.1073349087 -2745.04351254651 -1757.64019432801 0.0 0.0 0.0 0.0 0.0 0.0
23088.3972565383 2980.36645386617 -1740.78473003592 0.0 0.0 0.0 0.0 0.0 0.0
22987.2644707858 2744.38995377694 -5557.72470764437 0.0 0.0 0.0 0.0 0.0 0.0
9362.98517248174 -2901.9530107295 -5522.20786062192 0.0 0.0 0.0 0.0 0.0 0.0
9463.87775881391 -2666.53697595444 -1809.85839790102 0.0 0.0 0.0 0.0 0.0 0.0
22457.1008783371 2901.98721812692 -1793.04296684566 0.0 0.0 0.0 0.0 0.0 0.0
22356.2082920049 2666.57118335186 -5505.39242956656 0.0 0.0 0.0 0.0 0.0 0.0
9097.91915515561 -2823.37637752228 -5469.96414211161 0.0 0.0 0.0 0.0 0.0 0.0
9198.74098134696 -2588.12544974248 -1862.1711731031 0.0 0.0 0.0 0.0 0.0 0.0
21826.0163728768 2823.56400377029 -1845.36753540454 0.0 0.0 0.0 0.0 0.0 0.0
21725.1945466854 2588.31307599049 -5453.16050441306 0.0 0.0 0.0 0.0 0.0 0.0
8832.79949489342 -2744.95751536542 -5417.73557705031 0.0 0.0 0.0 0.0 0.0 0.0
8933.61091310772 -2509.73087286539 -1914.49723042918 0.0 0.0 0.0 0.0 0.0 0.0
21194.9451262817 2745.12664706632 -1897.69532739346 0.0 0.0 0.0 0.0 0.0 0.0
21094.1337080674 2509.90000456628 -5400.9336740146 0.0 0.0 0.0 0.0 0.0 0.0
8567.6487228401 -2666.57181155151 -5365.49161991802 0.0 0.0 0.0 0.0 0.0 0.0
8668.46530203015 -2431.33312677473 -1966.81398184317 0.0 0.0 0.0 0.0 0.0 0.0
20563.8370352921 2666.68333033755 -1950.01121864482 0.0 0.0 0.0 0.0 0.0 0.0
20463.0204561021 2431.44464556077 -5348.68885671968 0.0 0.0 0.0 0.0 0.0 0.0
8302.48315650596 -2588.18261771367 -5313.23043225421 0.0 0.0 0.0 0.0 0.0 0.0
8403.30398844852 -2352.9340098477 -2019.11957923979 0.0 0.0 0.0 0.0 0.0 0.0
19932.691973999 2588.23226967394 -2002.31610724936 0.0 0.0 0.0 0.0 0.0 0.0
19831.8711420565 2352.98366180797 -5296.42696026379 0.0 0.0 0.0 0.0 0.0 0.0
8037.31448280245 -2509.78665512458 -5260.95754149081 0.0 0.0 0.0 0.0 0.0 0.0
8138.13308447468 -2274.54325122271 -2071.41784352876 0.0 0.0 0.0 0.0 0.0 0.0
19301.5220273418 2509.76629572037 -2054.61474325005 0.0 0.0 0.0 0.0 0.0 0.0
19200.7034256696 2274.52289181849 -5244.1544412121 0.0 0.0 0.0 0.0 0.0 0.0
7772.15301570458 -2431.39185212418 -5208.67880522603 0.0 0.0 0.0 0.0 0.0 0.0
7872.9605389699 -2196.17429783843 -2123.71326227927 0.0 0.0 0.0 0.0 0.0 0.0
18670.3399392836 2431.27401658171 -2106.91200840171 0.0 0.0 0.0 0.0 0.0 0.0
18569.5324160182 2196.05646229596 -5191.87755134848 0.0 0.0 0.0 0.0 0.0 0.0
7507.01097694797 -2353.00982441926 -5156.39893102882 0.0 0.0 0.0 0.0 0.0 0.0
7607.79639107211 -2117.8438581296 -2176.00996001463 0.0 0.0 0.0 0.0 0.0 0.0
18039.1577896217 2352.73959839167 -2159.21239099394 0.0 0.0 0.0 0.0 0.0 0.0
17938.3723754976 2117.57363210202 -5139.60136200813 0.0 0.0 0.0 0.0 0.0 0.0
7241.90556943249 -2274.65421026087 -5104.12180437199 0.0 0.0 0.0 0.0 0.0 0.0
7342.65495433599 -2039.57231215269 -2228.31200031801 0.0 0.0 0.0 0.0 0.0 0.0
17407.9892685249 2274.14239392828 -2211.52043616743 0.0 0.0 0.0 0.0 0.0 0.0
17307.2398836214 2039.0604958201 -5087.3302402214 0.0 0.0 0.0 0.0 0.0 0.0
6976.86191454563 -2196.34075777713 -5051.85118856437 0.0 0.0 0.0 0.0 0.0 0.0
7077.55795188482 -1961.38333731902 -2280.62397983247 0.0 0.0 0.0 0.0 0.0 0.0
16776.8531824465 2195.45747577884 -2263.8413069426 0.0 0.0 0.0 0.0 0.0 0.0
16676.1571451073 1960.50005532073 -5035.06851567451 0.0 0.0 0.0 0.0 0.0 0.0
6711.91573913823 -2118.08714278184 -4999.59130805052 0.0 0.0 0.0 0.0 0.0 0.0
6812.53825601796 -1883.30127006248 -2332.95151754689 0.0 0.0 0.0 0.0 0.0 0.0
16145.7775227807 2116.65841569297 -2316.18109806693 0.0 0.0 0.0 0.0 0.0 0.0
16045.155005901 1881.87254297361 -4982.82088857057 0.0 0.0 0.0 0.0 0.0 0.0
6447.11521563837 -2039.91114451088 -4947.34713188144 0.0 0.0 0.0 0.0 0.0 0.0
6547.64389083598 -1805.34423571646 -2385.30141969387 0.0 0.0 0.0 0.0 0.0 0.0
15514.8038834925 2037.7243325649 -2368.54664049427 0.0 0.0 0.0 0.0 0.0 0.0
15414.2752082949 1803.15742377048 -4930.59235268184 0.0 0.0 0.0 0.0 0.0 0.0
6182.52056956439 -1961.82565911857 -4895.12418832242 0.0 0.0 0.0 0.0 0.0 0.0
6282.94151590232 -1727.5101176634 -2437.68124614721 0.0 0.0 0.0 0.0 0.0 0.0
14883.9918135155 1958.65429559941 -2420.94442175756 0.0 0.0 0.0 0.0 0.0 0.0
14783.5708671776 1724.33875414424 -4878.38736393276 0.0 0.0 0.0 0.0 0.0 0.0
5918.19885674618 -1883.82840015889 -4842.92761290056 0.0 0.0 0.0 0.0 0.0 0.0
6018.51770647602 -1649.7510841226 -2490.09781152392 0.0 0.0 0.0 0.0 0.0 0.0
14253.4220112943 1879.49361794237 -2473.37800323561 0.0 0.0 0.0 0.0 0.0 0.0
14153.1031615644 1645.41630190608 -4826.20780461225 0.0 0.0 0.0 0.0 0.0 0.0
5654.20951140691 -1805.88316772364 -4790.75991048149 0.0 0.0 0.0 0.0 0.0 0.0
5754.47483984678 -1571.93073469727 -2542.55384730039 0.0 0.0 0.0 0.0 0.0 0.0
13623.1960609807 1800.37836007439 -2525.84295922707 0.0 0.0 0.0 0.0 0.0 0.0
13522.9307325408 1566.42592704801 -4774.04902240818 0.0 0.0 0.0 0.0 0.0 0.0
5390.57370016327 -1727.8883659902 -4738.61660758671 0.0 0.0 0.0 0.0 0.0 0.0
5490.91606383262 -1493.75618409505 -2595.04162982683 0.0 0.0 0.0 0.0 0.0 0.0
12993.4284859922 1721.60628254476 -2578.3179025486 0.0 0.0 0.0 0.0 0.0 0.0
12893.0861223228 1487.47410064961 -4721.89288030848 0.0 0.0 0.0 0.0 0.0 0.0
5127.21704519016 -1649.62719208468 -4686.47859357147 0.0 0.0 0.0 0.0 0.0 0.0
5227.91039992342 -1414.67603104041 -2647.53185399975 0.0 0.0 0.0 0.0 0.0 0.0
12364.2239884244 1643.74407831716 -2630.74962821088 0.0 0.0 0.0 0.0 0.0 0.0
12263.5306336912 1408.79291727289 -4669.69636778259 0.0 0.0 0.0 0.0 0.0 0.0
4863.87089889756 -1570.69296005149 -4634.29954673048 0.0 0.0 0.0 0.0 0.0 0.0
4965.42428408383 -1333.73506128354 -2699.95547539968 0.0 0.0 0.0 0.0 0.0 0.0
11735.6285337416 1567.78104571267 -2683.02991120197 0.0 0.0 0.0 0.0 0.0 0.0
11634.0751485554 1330.82314694471 -4617.37398253277 0.0 0.0 0.0 0.0 0.0 0.0
4599.91233310391 -1490.38304027493 -4581.98655958744 0.0 0.0 0.0 0.0 0.0 0.0
4703.1996759876 -1249.37924021299 -2752.17586693139 0.0 0.0 0.0 0.0 0.0 0.0
11107.5371002838 1495.33679877108 -2734.96130978411 0.0 0.0 0.0 0.0 0.0 0.0
11004.2497574001 1254.33299870914 -4564.77200244016 0.0 0.0 0.0 0.0 0.0 0.0
4334.11813554922 -1407.55704325801 -4529.37227099524 0.0 0.0 0.0 0.0 0.0 0.0
4440.55151219872 -1159.21249774251 -2803.94895240151 0.0 0.0 0.0 0.0 0.0 0.0
10479.5331272768 1428.92248014809 -2786.21005629326 0.0 0.0 0.0 0.0 0.0 0.0
10373.0997506273 1180.57793463259 -4511.63337488699 0.0 0.0 0.0 0.0 0.0 0.0
4064.30501647256 -1320.46099591086 -4476.17823732171 0.0 0.0 0.0 0.0 0.0 0.0
4176.04963267894 -1059.72355809599 -2854.8710783167 0.0 0.0 0.0 0.0 0.0 0.0
9850.62468919647 1372.23718041153 -2836.24697561563 0.0 0.0 0.0 0.0 0.0 0.0
9738.88007299009 1111.49974259665 -4457.55413462064 0.0 0.0 0.0 0.0 0.0 0.0
3786.82992539625 -1226.53200407428 -4421.97341337227 0.0 0.0 0.0 0.0 0.0 0.0
3907.04434400052 -946.031693997642 -2904.32042488738 0.0 0.0 0.0 0.0 0.0 0.0
9218.82980369764 1330.44778872969 -2884.28468845333 0.0 0.0 0.0 0.0 0.0 0.0
9098.61538509336 1049.94747865305 -4401.93767693822 0.0 0.0 0.0 0.0 0.0 0.0
3495.93600318054 -1122.22098292049 -4366.14119602684 0.0 0.0 0.0 0.0 0.0 0.0
3628.99424145007 -811.751760291588 -2951.41171080448 0.0 0.0 0.0 0.0 0.0 0.0
8580.54743972835 1310.34246754196 -2929.23533775956 0.0 0.0 0.0 0.0 0.0 0.0
8447.48920145882 999.873244913057 -4343.96482298192 0.0 0.0 0.0 0.0 0.0 0.0
3182.96057044642 -1002.90904786458 -4307.8881017724 0.0 0.0 0.0 0.0 0.0 0.0
3334.56624583852 -649.162471949699 -2995.0127962476 0.0 0.0 0.0 0.0 0.0 0.0
7929.62981517529 1320.15048633749 -2969.74518368226 0.0 0.0 0.0 0.0 0.0 0.0
7778.0241397832 966.403910422609 -4282.62048920705 0.0 0.0 0.0 0.0 0.0 0.0
2835.48920107325 -863.052633991958 -4246.36394844883 0.0 0.0 0.0 0.0 0.0 0.0
3012.51235307904 -449.998612645112 -3033.92639374131 0.0 0.0 0.0 0.0 0.0 0.0
7256.04379455535 1368.65771941616 -3004.42253507368 0.0 0.0 0.0 0.0 0.0 0.0
7079.02064254956 955.603698069317 -4216.8600897812 0.0 0.0 0.0 0.0 0.0 0.0
2436.68411873694 -696.78214164887 -4181.02618290113 0.0 0.0 0.0 0.0 0.0 0.0
2646.40695974645 -207.42884596 -3067.43631268079 0.0 0.0 0.0 0.0 0.0 0.0
6543.97150551764 1462.95595937051 -3032.48250584587 0.0 0.0 0.0 0.0 0.0 0.0
6334.24866450813 973.60266368164 -4146.07237606621 0.0 0.0 0.0 0.0 0.0 0.0
1965.33238900903 -499.317947704608 -4112.47563915742 0.0 0.0 0.0 0.0 0.0 0.0
2213.49831345924 79.7358760125378 -3096.56906244927 0.0 0.0 0.0 0.0 0.0 0.0
5769.17133193776 1603.59574107476 -3055.20807504091 0.0 0.0 0.0 0.0 0.0 0.0
5521.00540748755 1024.54191735762 -4071.11465174906 0.0 0.0 0.0 0.0 0.0 0.0
1397.87124228932 -269.818583060284 -4044.09951007906 0.0 0.0 0.0 0.0 0.0 0.0
1684.29790391085 398.510294056616 -3126.61053679403 0.0 0.0 0.0 0.0 0.0 0.0
4895.50931040844 1774.74375398415 -3078.87275985711 0.0 0.0 0.0 0.0 0.0 0.0
4609.08264878691 1106.41487686725 -3996.36173314214 0.0 0.0 0.0 0.0 0.0 0.0
715.338467915842 -16.758035655529 -3984.86343720489 0.0 0.0 0.0 0.0 0.0 0.0
1024.36446613024 704.302626844731 -3171.51518781172 0.0 0.0 0.0 0.0 0.0 0.0
3871.08333900633 1924.32500093448 -3120.01085477599 0.0 0.0 0.0 0.0 0.0 0.0
3562.05734079193 1203.26433843422 -3933.35910416916 0.0 0.0 0.0 0.0 0.0 0.0
-78.0919888091779 231.821289013552 -3953.05579263669 0.0 0.0 0.0 0.0 0.0 0.0
201.503429872826 884.21059927156 -3260.06009497348 0.0 0.0 0.0 0.0 0.0 0.0
2626.98837169406 1923.70414576637 -3213.46085852648 0.0 0.0 0.0 0.0 0.0 0.0
2347.39295301205 1271.31483550837 -3906.45655618969 0.0 0.0 0.0 0.0 0.0 0.0
-914.273354903019 406.020548653341 -3978.24355769275 0.0 0.0 0.0 0.0 0.0 0.0
-795.513315885764 683.12730636027 -3438.72415342228 0.0 0.0 0.0 0.0 0.0 0.0
1092.80459906088 1492.40641276597 -3418.93081358607 0.0 0.0 0.0 0.0 0.0 0.0
974.044560043621 1215.29965505904 -3958.45021785654 0.0 0.0 0.0 0.0 0.0 0.0
-1597.69000089501 339.337298499165 -4090.73872395796 0.0 0.0 0.0 0.0 0.0 0.0
-1919.2024823332 -410.85849152328 -3751.59257240785 0.0 0.0 0.0 0.0 0.0 0.0
-732.19095190783 97.8607358018776 -3805.17798598088 0.0 0.0 0.0 0.0 0.0 0.0
-410.678470469639 848.056525824323 -4144.32413753099 0.0 0.0 0.0 0.0 0.0 0.0
-1777.97508307253 -350.332463268708 -4272.31529902376 0.0 0.0 0.0 0.0 0.0 0.0
-3009.09687694444 -3222.94998230316 -4157.03862866407 0.0 0.0 0.0 0.0 0.0 0.0
-2605.6285306855 -3050.03497676362 -4362.22559430939 0.0 0.0 0.0 0.0 0.0 0.0
-1374.50673681359 -177.417457729162 -4477.50226466908 0.0 0.0 0.0 0.0 0.0 0.0
-1132.5748501206 -2418.72625652152 -4335.2367093261 0.0 0.0 0.0 0.0 0.0 0.0
-3757.12462538621 -8542.67573214128 -4358.38773440788 0.0 0.0 0.0 0.0 0.0 0.0
-3838.15321317243 -8577.40226976395 -4795.81269695215 0.0 0.0 0.0 0.0 0.0 0.0
-1213.60343790682 -2453.45279414418 -4772.66167187037 0.0 0.0 0.0 0.0 0.0 0.0
60.330273231441 -6906.62363273372 -3764.87276166854 0.0 0.0 0.0 0.0 0.0 0.0
-3772.92570308213 -15850.8875774654 -3675.8613997098 0.0 0.0 0.0 0.0 0.0 0.0
-3461.38593622653 -15717.3705345273 -4314.73739576206 0.0 0.0 0.0 0.0 0.0 0.0
371.870040087041 -6773.1065897956 -4403.74875772081 0.0 0.0 0.0 0.0 0.0 0.0
383.262781189326 -14069.6639413491 -1788.87664542467 0.0 0.0 0.0 0.0 0.0 0.0
-2870.56888634499 -21661.9378322624 -1353.09765168948 0.0 0.0 0.0 0.0 0.0 0.0
-1345.34240827179 -21008.2693416596 -1895.40292961186 0.0 0.0 0.0 0.0 0.0 0.0
1908.48925926252 -13415.9954507463 -2331.18192334706 0.0 0.0 0.0 0.0 0.0 0.0
28213.2955547065 12091.4123805885 -636.805426941216 0.0 0.0 0.0 0.0 0.0 0.0
24717.1157715457 3933.6595532133 3459.13848721019 0.0 0.0 0.0 0.0 0.0 0.0
39052.9194710756 10077.5754244404 2876.44185668339 0.0 0.0 0.0 0.0 0.0 0.0
42549.0992542364 18235.3282518156 -1219.50205746801 0.0 0.0 0.0 0.0 0.0 0.0
28528.8364855389 5567.25414492467 -4168.07287899179 0.0 0.0 0.0 0.0 0.0 0.0
25882.7052688594 -607.052027327503 510.077686343739 0.0 0.0 0.0 0.0 0.0 0.0
42256.2322475337 6410.17382067579 69.0558168971552 0.0 0.0 0.0 0.0 0.0 0.0
44902.3634642132 12584.479992928 -4609.09474843838 0.0 0.0 0.0 0.0 0.0 0.0
28053.7676191399 323.403265649884 -5759.33023453473 0.0 0.0 0.0 0.0 0.0 0.0
26688.0508917087 -2863.26909835628 -802.798883417307 0.0 0.0 0.0 0.0 0.0 0.0
44035.9106206197 4571.52792831985 -1030.41833798918 0.0 0.0 0.0 0.0 0.0 0.0
45401.6273480509 7758.20029232602 -5986.9496891066 0.0 0.0 0.0 0.0 0.0 0.0
27183.0601205207 -2651.12228600827 -6214.41726941572 0.0 0.0 0.0 0.0 0.0 0.0
26777.264981004 -3597.9776115474 -1243.90488268797 0.0 0.0 0.0 0.0 0.0 0.0
44174.0583345511 3857.79096854422 -1311.53740594077 0.0 0.0 0.0 0.0 0.0 0.0
44579.8534740678 4804.64629408334 -6282.04979266851 0.0 0.0 0.0 0.0 0.0 0.0
26240.1975406144 -3828.14937171436 -6195.82477584169 0.0 0.0 0.0 0.0 0.0 0.0
26314.7943984337 -3654.0900368027 -1337.66077490497 0.0 0.0 0.0 0.0 0.0 0.0
43318.3684017122 3633.15596460238 -1325.22796526842 0.0 0.0 0.0 0.0 0.0 0.0
43243.7715438929 3459.09662969072 -6183.39196620514 0.0 0.0 0.0 0.0 0.0 0.0
25378.7060338516 -4055.27076448071 -6053.57959759668 0.0 0.0 0.0 0.0 0.0 0.0
25612.7589220646 -3509.14735865058 -1336.69505132949 0.0 0.0 0.0 0.0 0.0 0.0
42121.8548339997 3566.1794607502 -1297.68623662734 0.0 0.0 0.0 0.0 0.0 0.0
41887.8019457868 3020.05605492007 -6014.57078289453 0.0 0.0 0.0 0.0 0.0 0.0
24627.9911372987 -3931.1906949788 -5914.63914550284 0.0 0.0 0.0 0.0 0.0 0.0
24879.1894611032 -3345.06127276825 -1331.72276904986 0.0 0.0 0.0 0.0 0.0 0.0
40919.3967786887 3529.31329191122 -1289.85638174911 0.0 0.0 0.0 0.0 0.0 0.0
40668.1984548842 2943.18386970068 -5872.77275820209 0.0 0.0 0.0 0.0 0.0 0.0
23963.2027771275 -3737.62699447212 -5805.17861176536 0.0 0.0 0.0 0.0 0.0 0.0
24191.1037091616 -3205.85815305943 -1344.29550295482 0.0 0.0 0.0 0.0 0.0 0.0
39804.1945899985 3485.46651015639 -1306.31201428249 0.0 0.0 0.0 0.0 0.0 0.0
39576.2936579644 2953.69766874369 -5767.19512309303 0.0 0.0 0.0 0.0 0.0 0.0
23350.8740672247 -3565.95657103236 -5720.68935609806 0.0 0.0 0.0 0.0 0.0 0.0
23554.0683757993 -3091.83651769162 -1373.52308412041 0.0 0.0 0.0 0.0 0.0 0.0
38769.1503277211 3428.91289027485 -1339.65736602465 0.0 0.0 0.0 0.0 0.0 0.0
38565.9560191465 2954.79283693411 -5686.82363800229 0.0 0.0 0.0 0.0 0.0 0.0
22766.1245228286 -3429.52674039334 -5652.07820964638 0.0 0.0 0.0 0.0 0.0 0.0
22952.42310681 -2994.83004443685 -1413.87453730461 0.0 0.0 0.0 0.0 0.0 0.0
37786.1359600062 3362.47546407582 -1382.82477330771 0.0 0.0 0.0 0.0 0.0 0.0
37599.8373760249 2927.77876811932 -5621.02844564949 0.0 0.0 0.0 0.0 0.0 0.0
22194.3097762202 -3319.73575754676 -5592.25880330036 0.0 0.0 0.0 0.0 0.0 0.0
22370.9437948228 -2907.5897141407 -1460.55056947495 0.0 0.0 0.0 0.0 0.0 0.0
36831.9226132117 3289.97263659741 -1431.11156637452 0.0 0.0 0.0 0.0 0.0 0.0
36655.2885946091 2877.82659319135 -5562.81980019993 0.0 0.0 0.0 0.0 0.0 0.0
21627.93903489 -3226.02032554046 -5536.83103561321 0.0 0.0 0.0 0.0 0.0 0.0
21799.648317901 -2825.36533184821 -1510.44850243899 0.0 0.0 0.0 0.0 0.0 0.0
35891.9871840108 3214.20846791313 -1481.83028860382 0.0 0.0 0.0 0.0 0.0 0.0
35720.2779009998 2813.55347422088 -5508.21282177805 0.0 0.0 0.0 0.0 0.0 0.0
21063.5718974722 -3140.82665488912 -5483.39942989464 0.0 0.0 0.0 0.0 0.0 0.0
21233.0039665877 -2745.48516028615 -1561.83859098786 0.0 0.0 0.0 0.0 0.0 0.0
34958.4669027615 3136.85609807404 -1533.59991280193 0.0 0.0 0.0 0.0 0.0 0.0
34789.0348336459 2741.51460347106 -5455.16075170872 0.0 0.0 0.0 0.0 0.0 0.0
20499.7886493472 -3059.72029624638 -5430.78532805518 0.0 0.0 0.0 0.0 0.0 0.0
20668.2697043079 -2666.59783467141 -1613.85303625083 0.0 0.0 0.0 0.0 0.0 0.0
34027.5327256231 3058.80060303511 -1585.77286042405 0.0 0.0 0.0 0.0 0.0 0.0
33859.0516706624 2665.67814146014 -5402.70515222839 0.0 0.0 0.0 0.0 0.0 0.0
19936.0807397745 -2980.39310518571 -5378.46073578148 0.0 0.0 0.0 0.0 0.0 0.0
20104.2146389301 -2588.08067382271 -1666.09598274948 0.0 0.0 0.0 0.0 0.0 0.0
33097.4912745421 2980.46645572529 -1638.07366622355 0.0 0.0 0.0 0.0 0.0 0.0
32929.3573753865 2588.15402436228 -5350.43841925555 0.0 0.0 0.0 0.0 0.0 0.0
19372.3083072784 -2901.75481595914 -5326.21352031688 0.0 0.0 0.0 0.0 0.0 0.0
19540.34247774 -2509.67508488219 -1718.40470549544 0.0 0.0 0.0 0.0 0.0 0.0
32167.673329615 2902.03813734998 -1690.39901041851 0.0 0.0 0.0 0.0 0.0 0.0
31999.6391591535 2509.95840627302 -5298.20782523996 0.0 0.0 0.0 0.0 0.0 0.0
18808.4598129306 -2823.3390840862 -5273.97084410549 0.0 0.0 0.0 0.0 0.0 0.0
18976.4816465478 -2431.28813897943 -1770.72132502872 0.0 0.0 0.0 0.0 0.0 0.0
31237.8549633165 2823.58613963572 -1742.71768609252 0.0 0.0 0.0 0.0 0.0 0.0
31069.8331296993 2431.53519452895 -5245.96720516929 0.0 0.0 0.0 0.0 0.0 0.0
18244.5569763682 -2744.97014048498 -5221.71485435494 0.0 0.0 0.0 0.0 0.0 0.0
18412.5889817288 -2352.89546131017 -1823.03039404041 0.0 0.0 0.0 0.0 0.0 0.0
30307.9845928297 2745.13122916162 -1795.02505981364 0.0 0.0 0.0 0.0 0.0 0.0
30139.952587469 2353.05654998681 -5193.70952012817 0.0 0.0 0.0 0.0 0.0 0.0
17680.6230884931 -2666.59512983975 -5169.44613565937 0.0 0.0 0.0 0.0 0.0 0.0
17848.6646732613 -2274.49809871405 -1875.33138497154 0.0 0.0 0.0 0.0 0.0 0.0
29378.0663006687 2666.67402731769 -1847.32445417685 0.0 0.0 0.0 0.0 0.0 0.0
29210.0247159005 2274.57699619199 -5141.43920486468 0.0 0.0 0.0 0.0 0.0 0.0
17116.6761249319 -2588.20747656951 -5117.16971893429 0.0 0.0 0.0 0.0 0.0 0.0
17284.7197495186 -2196.10568586714 -1927.62794358075 0.0 0.0 0.0 0.0 0.0 0.0
28448.115963256 2588.20697716316 -1899.6206728163 0.0 0.0 0.0 0.0 0.0 0.0
28280.0723386693 2196.10518646079 -5089.16244816983 0.0 0.0 0.0 0.0 0.0 0.0
16552.730138195 -2509.81551929155 -5064.89075167918 0.0 0.0 0.0 0.0 0.0 0.0
16720.7662704058 -2117.73121079974 -1979.92449513428 0.0 0.0 0.0 0.0 0.0 0.0
27518.1481683129 2509.71817401761 -1951.91847309915 0.0 0.0 0.0 0.0 0.0 0.0
27350.1120361022 2117.6338655258 -5036.88472964405 0.0 0.0 0.0 0.0 0.0 0.0
15988.7987066198 -2431.43159527943 -5012.61384874069 0.0 0.0 0.0 0.0 0.0 0.0
16156.8164200933 -2039.39026384133 -2032.22574991374 0.0 0.0 0.0 0.0 0.0 0.0
26588.1747659877 2431.1918843991 -2004.22279766816 0.0 0.0 0.0 0.0 0.0 0.0
26420.1570525142 2039.150552961 -4984.61089649511 0.0 0.0 0.0 0.0 0.0 0.0
15424.898514093 -2353.0693664129 -4960.3435991412 0.0 0.0 0.0 0.0 0.0 0.0
15592.8847728384 -1961.10142934026 -2084.53718435089 0.0 0.0 0.0 0.0 0.0 0.0
25658.2072246045 2352.60819284521 -2056.53947455998 0.0 0.0 0.0 0.0 0.0 0.0
25490.2209658591 1960.64025577256 -4932.34588935029 0.0 0.0 0.0 0.0 0.0 0.0
14861.0526494208 -2274.74376794781 -4908.08526385797 0.0 0.0 0.0 0.0 0.0 0.0
15028.9916662369 -1882.88606204364 -2136.86571740167 0.0 0.0 0.0 0.0 0.0 0.0
24728.2600788339 2273.94325764081 -2108.87588126566 0.0 0.0 0.0 0.0 0.0 0.0
24560.3210620178 1882.08555173663 -4880.09542772195 0.0 0.0 0.0 0.0 0.0 0.0
14297.2934896913 -2196.47099484886 -4855.84529902964 0.0 0.0 0.0 0.0 0.0 0.0
14465.1670409677 -1804.76604187055 -2189.22022353151 0.0 0.0 0.0 0.0 0.0 0.0
23798.3548052112 2195.17157137664 -2161.24129831877 0.0 0.0 0.0 0.0 0.0 0.0
23630.4812539348 1803.46661839833 -4827.8663738169 0.0 0.0 0.0 0.0 0.0 0.0
13733.6647264819 -2118.26703379304 -4803.63147814642 0.0 0.0 0.0 0.0 0.0 0.0
13901.454422162 -1726.75774387279 -2241.61157423652 0.0 0.0 0.0 0.0 0.0 0.0
22868.5240858467 2116.27211199206 -2213.6466249565 0.0 0.0 0.0 0.0 0.0 0.0
22700.7343901666 1724.76282207181 -4775.6665288664 0.0 0.0 0.0 0.0 0.0 0.0
13170.2214058472 -2040.14332229345 -4751.45229767501 0.0 0.0 0.0 0.0 0.0 0.0
13337.9144166262 -1648.85963047579 -2294.05173875537 0.0 0.0 0.0 0.0 0.0 0.0
21938.8163728449 2037.24120790368 -2266.10290362553 0.0 0.0 0.0 0.0 0.0 0.0
21771.1233620659 1645.95751608603 -4723.50346254518 0.0 0.0 0.0 0.0 0.0 0.0
12607.0257646751 -1962.09762416912 -4699.31512161006 0.0 0.0 0.0 0.0 0.0 0.0
12774.6263131834 -1571.02967764967 -2346.55115264873 0.0 0.0 0.0 0.0 0.0 0.0
21009.3002045481 1958.11627579233 -2318.61772789734 0.0 0.0 0.0 0.0 0.0 0.0
20841.6996560397 1567.04832927288 -4671.38169685867 0.0 0.0 0.0 0.0 0.0 0.0
12044.1350344299 -1884.09736854403 -4647.2221718213 0.0 0.0 0.0 0.0 0.0 0.0
12211.6850302644 -1493.14737826354 -2399.11308076413 0.0 0.0 0.0 0.0 0.0 0.0
20080.0668489645 1879.0162583222 -2371.18808145839 0.0 0.0 0.0 0.0 0.0 0.0
19912.51685313 1488.06626804172 -4619.29717251555 0.0 0.0 0.0 0.0 0.0 0.0
11481.5750916066 -1806.05163768832 -4595.16300184554 0.0 0.0 0.0 0.0 0.0 0.0
11649.1885743368 -1414.95351131778 -2451.72304658814 0.0 0.0 0.0 0.0 0.0 0.0
19151.2284177377 1800.20642156833 -2423.7874661331 0.0 0.0 0.0 0.0 0.0 0.0
18983.6149350075 1409.10829519778 -4567.2274213905 0.0 0.0 0.0 0.0 0.0 0.0
10919.2907220358 -1727.76687658965 -4543.10151182212 0.0 0.0 0.0 0.0 0.0 0.0
11087.2081170972 -1335.9596214463 -2504.33058404481 0.0 0.0 0.0 0.0 0.0 0.0
18222.9063643178 1722.19677021968 -2476.34435153457 0.0 0.0 0.0 0.0 0.0 0.0
18054.9889692564 1330.38951507633 -4515.11527931189 0.0 0.0 0.0 0.0 0.0 0.0
10357.0592772282 -1648.88055281875 -4490.9549383667 0.0 0.0 0.0 0.0 0.0 0.0
10525.7285365179 -1255.31894780934 -2556.81967969674 0.0 0.0 0.0 0.0 0.0 0.0
17295.2019418628 1645.8839401956 -2528.70813648178 0.0 0.0 0.0 0.0 0.0 0.0
17126.532682573 1252.3223351862 -4462.84339515174 0.0 0.0 0.0 0.0 0.0 0.0
9794.34976017635 -1568.76699481287 -4438.56177093493 0.0 0.0 0.0 0.0 0.0 0.0
9964.54163972162 -1171.65260920725 -2608.96356631863 0.0 0.0 0.0 0.0 0.0 0.0
16368.1353558787 1572.74469771719 -2580.59825306108 0.0 0.0 0.0 0.0 0.0 0.0
16197.9434763334 1175.63031211158 -4410.19645767738 0.0 0.0 0.0 0.0 0.0 0.0
9230.10429006514 -1486.41147334575 -4385.63563142151 0.0 0.0 0.0 0.0 0.0 0.0
9403.06734533621 -1082.83101104656 -2660.3595850131 0.0 0.0 0.0 0.0 0.0 0.0
15441.5335077656 1505.08305856605 -2631.53240913459 0.0 0.0 0.0 0.0 0.0 0.0
15268.5704524946 1101.50259626687 -4356.808455543 0.0 0.0 0.0 0.0 0.0 0.0
8662.41429104953 -1400.253748598 -4331.70366334048 0.0 0.0 0.0 0.0 0.0 0.0
8840.07022408289 -985.723238186811 -2710.3418349117 0.0 0.0 0.0 0.0 0.0 0.0
14514.8366235836 1446.31950445636 -2680.73251273947 0.0 0.0 0.0 0.0 0.0 0.0
14337.1806905503 1031.78899404517 -4302.09434116826 0.0 0.0 0.0 0.0 0.0 0.0
8088.06091997979 -1308.01293994528 -4276.03253623429 0.0 0.0 0.0 0.0 0.0 0.0
8273.23085378039 -875.94976107721 -2757.87551917462 0.0 0.0 0.0 0.0 0.0 0.0
13586.7804134892 1401.28576451229 -2727.01386354119 0.0 0.0 0.0 0.0 0.0 0.0
13401.6104796886 969.222585644213 -4245.17088060085 0.0 0.0 0.0 0.0 0.0 0.0
7501.89025154158 -1206.52430489384 -4217.55565370321 0.0 0.0 0.0 0.0 0.0 0.0
7698.52479998853 -747.71035851763 -2801.45137951762 0.0 0.0 0.0 0.0 0.0 0.0
12654.8897596381 1376.44605276076 -2768.67895477646 0.0 0.0 0.0 0.0 0.0 0.0
12458.2552111912 917.632106384543 -4184.78322896205 0.0 0.0 0.0 0.0 0.0 0.0
6896.00150004338 -1091.64891563698 -4154.83653096511 0.0 0.0 0.0 0.0 0.0 0.0
7109.35882643836 -593.815154048677 -2839.02839240052 0.0 0.0 0.0 0.0 0.0 0.0
11714.6873114144 1379.89705379822 -2803.46883800135 0.0 0.0 0.0 0.0 0.0 0.0
11501.3299850195 882.063292209911 -4119.27697656595 0.0 0.0 0.0 0.0 0.0 0.0
6258.74965381263 -958.361942316849 -4086.14329849946 0.0 0.0 0.0 0.0 0.0 0.0
6495.41705913521 -406.13799656415 -2868.13049112719 0.0 0.0 0.0 0.0 0.0 0.0
10758.4618849381 1420.88121449425 -2828.68592357343 0.0 0.0 0.0 0.0 0.0 0.0
10521.7944796156 868.65726874155 -4046.69873094569 0.0 0.0 0.0 0.0 0.0 0.0
5573.62192908799 -801.193052298673 -4009.78033211972 0.0 0.0 0.0 0.0 0.0 0.0
5841.18743392748 -176.873541006539 -2886.3066135573 0.0 0.0 0.0 0.0 0.0 0.0
9773.34544889595 1508.33703683709 -2841.71236275072 0.0 0.0 0.0 0.0 0.0 0.0
9505.77994405647 884.01752554496 -3965.18608131314 0.0 0.0 0.0 0.0 0.0 0.0
4818.22133589739 -615.287583019435 -3924.93875946049 0.0 0.0 0.0 0.0 0.0 0.0
5124.19684390878 98.655269007153 -2892.34823740868 0.0 0.0 0.0 0.0 0.0 0.0
8738.26367109013 1647.54105208487 -2841.35231940678 0.0 0.0 0.0 0.0 0.0 0.0
8432.28816307873 933.598200058283 -3873.94284145859 0.0 0.0 0.0 0.0 0.0 0.0
3964.10816075793 -398.525595200354 -3833.5018955099 0.0 0.0 0.0 0.0 0.0 0.0
4313.1651995921 415.940828746041 -2888.95122174696 0.0 0.0 0.0 0.0 0.0 0.0
7619.09255776241 1832.76683939046 -2830.77504860793 0.0 0.0 0.0 0.0 0.0 0.0
7270.03551892824 1018.30041544406 -3775.32572237088 0.0 0.0 0.0 0.0 0.0 0.0
2979.7132299756 -155.53858680389 -3743.43756605901 0.0 0.0 0.0 0.0 0.0 0.0
3366.89267299705 747.880113579496 -2887.9113430088 0.0 0.0 0.0 0.0 0.0 0.0
6361.23445367278 2031.16944815481 -2823.38143583856 0.0 0.0 0.0 0.0 0.0 0.0
5974.05501065133 1127.75074777143 -3678.90765888877 0.0 0.0 0.0 0.0 0.0 0.0
1843.20228700277 94.869948153378 -3674.3570444225 0.0 0.0 0.0 0.0 0.0 0.0
2236.54256237722 1012.66392402708 -2919.32988040085 0.0 0.0 0.0 0.0 0.0 0.0
4879.13763645299 2145.20467005955 -2853.77316783844 0.0 0.0 0.0 0.0 0.0 0.0
4485.79736107854 1227.41069418585 -3608.80033186009 0.0 0.0 0.0 0.0 0.0 0.0
583.598750726781 304.259433319751 -3664.31923973091 0.0 0.0 0.0 0.0 0.0 0.0
878.559096745386 992.500240696496 -3043.85114282136 0.0 0.0 0.0 0.0 0.0 0.0
3050.1974359288 1923.20238606082 -2994.69108515159 0.0 0.0 0.0 0.0 0.0 0.0
2755.23708991019 1234.96157868407 -3615.15918206114 0.0 0.0 0.0 0.0 0.0 0.0
-624.92397278513 348.150353754846 -3769.24446676628 0.0 0.0 0.0 0.0 0.0 0.0
-707.182855604295 156.212960510126 -3349.93445365908 0.0 0.0 0.0 0.0 0.0 0.0
760.402190270908 785.177980170927 -3363.64426746227 0.0 0.0 0.0 0.0 0.0 0.0
842.661073090073 977.115373415647 -3782.95428056947 0.0 0.0 0.0 0.0 0.0 0.0
-1349.49864051006 -119.065233020914 -4022.25873234728 0.0 0.0 0.0 0.0 0.0 0.0
-2399.80240434795 -2569.77401530933 -3874.67923527144 0.0 0.0 0.0 0.0 0.0 0.0
-1883.27416458251 -2348.40476969557 -4049.72986257775 0.0 0.0 0.0 0.0 0.0 0.0
-832.970400744622 102.304012592843 -4197.30935965359 0.0 0.0 0.0 0.0 0.0 0.0
-1007.77731156926 -1973.19183268989 -4285.11531283243 0.0 0.0 0.0 0.0 0.0 0.0
-3861.64114055804 -8632.20743366371 -4363.11888035727 0.0 0.0 0.0 0.0 0.0 0.0
-4134.653626895 -8749.21278495097 -4838.7628518554 0.0 0.0 0.0 0.0 0.0 0.0
-1280.78979790622 -2090.19718397716 -4760.75928433056 0.0 0.0 0.0 0.0 0.0 0.0
348.382112701431 -6827.91175369536 -3971.05494112593 0.0 0.0 0.0 0.0 0.0 0.0
-4515.39996881307 -18176.7366105625 -3964.38438329713 0.0 0.0 0.0 0.0 0.0 0.0
-4492.05301641229 -18166.7307738193 -4775.01473021622 0.0 0.0 0.0 0.0 0.0 0.0
371.729065102214 -6817.90591695217 -4781.68528804501 0.0 0.0 0.0 0.0 0.0 0.0
854.475226675984 -15875.3615267815 -1980.82891088213 0.0 0.0 0.0 0.0 0.0 0.0
-3784.82706748923 -26700.400213167 -1514.36317771207 0.0 0.0 0.0 0.0 0.0 0.0
-2152.19700139403 -26000.7016134119 -2287.58022673961 0.0 0.0 0.0 0.0 0.0 0.0
2487.10529277118 -15175.6629270264 -2754.04595990966 0.0 0.0 0.0 0.0 0.0 0.0
42549.0992542364 18235.3282518156 -1219.50205746801 0.0 0.0 0.0 0.0 0.0 0.0
37401.00246773 6223.10241663412 2965.74031102046 0.0 0.0 0.0 0.0 0.0 0.0
52049.3507574397 12500.9659693668 2107.72417993607 0.0 0.0 0.0 0.0 0.0 0.0
57197.447543946 24513.1918045483 -2077.51818855241 0.0 0.0 0.0 0.0 0.0 0.0
43250.4464608677 8730.00698512168 -4519.79629410131 0.0 0.0 0.0 0.0 0.0 0.0
39511.5615187473 5.94212017414975 292.106720004978 0.0 0.0 0.0 0.0 0.0 0.0
56353.2220681193 7223.79664133359 -331.040770348417 0.0 0.0 0.0 0.0 0.0 0.0
60092.1070102397 15947.8615062811 -5142.94378445471 0.0 0.0 0.0 0.0 0.0 0.0
42656.9566192645 1353.96859182438 -5763.89878599878 0.0 0.0 0.0 0.0 0.0 0.0
40878.052138249 -2796.80853054518 -727.148167387195 0.0 0.0 0.0 0.0 0.0 0.0
58506.6793033895 4758.31739737219 -1023.63224755645 0.0 0.0 0.0 0.0 0.0 0.0
60285.583784405 8909.09451974175 -6060.38286616803 0.0 0.0 0.0 0.0 0.0 0.0
41421.9949916971 -2563.6901647817 -5978.77962206653 0.0 0.0 0.0 0.0 0.0 0.0
40982.7372965619 -3588.62478676382 -1003.77544882976 0.0 0.0 0.0 0.0 0.0 0.0
58395.2519028906 3873.88147309134 -1076.98506468563 0.0 0.0 0.0 0.0 0.0 0.0
58834.5095980258 4898.81609507346 -6051.98923792239 0.0 0.0 0.0 0.0 0.0 0.0
40052.4505059037 -3987.31912561732 -5875.63000909413 0.0 0.0 0.0 0.0 0.0 0.0
40214.778093867 -3608.55475370308 -1050.87358892056 0.0 0.0 0.0 0.0 0.0 0.0
57101.4255644745 3628.57987655728 -1023.81899092669 0.0 0.0 0.0 0.0 0.0 0.0
56939.0979765113 3249.81550464304 -5848.57541110026 0.0 0.0 0.0 0.0 0.0 0.0
38784.2116379416 -4221.65466338539 -5740.21640654666 0.0 0.0 0.0 0.0 0.0 0.0
39118.4099011979 -3441.85871578725 -1058.61214636607 0.0 0.0 0.0 0.0 0.0 0.0
55504.02481183 3580.54767448363 -1002.91243582335 0.0 0.0 0.0 0.0 0.0 0.0
55169.8265485737 2800.7517268855 -5684.51669600394 0.0 0.0 0.0 0.0 0.0 0.0
37664.7535220824 -4064.85430683678 -5633.69866794082 0.0 0.0 0.0 0.0 0.0 0.0
38005.1010828174 -3270.70999845497 -1074.77357512036 0.0 0.0 0.0 0.0 0.0 0.0
53961.3389076891 3567.67764077573 -1018.04898166452 0.0 0.0 0.0 0.0 0.0 0.0
53620.991346954 2773.53333239392 -5576.97407448498 0.0 0.0 0.0 0.0 0.0 0.0
36661.9979620932 -3846.32562162249 -5552.11231646428 0.0 0.0 0.0 0.0 0.0 0.0
36969.381112906 -3129.09826972592 -1104.61296504765 0.0 0.0 0.0 0.0 0.0 0.0
52535.6288428643 3542.15075739903 -1053.38243991218 0.0 0.0 0.0 0.0 0.0 0.0
52228.2456920514 2824.92340550246 -5500.88179132881 0.0 0.0 0.0 0.0 0.0 0.0
35731.142542054 -3659.7719429482 -5485.12458876745 0.0 0.0 0.0 0.0 0.0 0.0
36007.885287725 -3014.03886971589 -1144.59522075106 0.0 0.0 0.0 0.0 0.0 0.0
51199.7380757824 3496.7551823087 -1098.47142980589 0.0 0.0 0.0 0.0 0.0 0.0
50922.9953301114 2851.02210907639 -5439.00079782229 0.0 0.0 0.0 0.0 0.0 0.0
34838.5723360288 -3515.17299187142 -5425.9663003759 0.0 0.0 0.0 0.0 0.0 0.0
35095.0989149841 -2916.61097430898 -1190.73544124083 0.0 0.0 0.0 0.0 0.0 0.0
49918.4069219569 3436.23531439363 -1147.98101141494 0.0 0.0 0.0 0.0 0.0 0.0
49661.8803430016 2837.6732968312 -5383.21187055002 0.0 0.0 0.0 0.0 0.0 0.0
33964.2515495871 -3401.25984519345 -5370.73046813304 0.0 0.0 0.0 0.0 0.0 0.0
34209.4151447449 -2829.2114564918 -1240.21061004278 0.0 0.0 0.0 0.0 0.0 0.0
48666.2346480608 3366.56833064359 -1199.35001084981 0.0 0.0 0.0 0.0 0.0 0.0
48421.071052903 2794.51994194194 -5329.86986894007 0.0 0.0 0.0 0.0 0.0 0.0
33097.770432533 -3305.63061886834 -5317.31186544631 0.0 0.0 0.0 0.0 0.0 0.0
33337.2122450977 -2746.93305621729 -1291.33456827821 0.0 0.0 0.0 0.0 0.0 0.0
47428.1327851861 3292.03288953488 -1251.42759951742 0.0 0.0 0.0 0.0 0.0 0.0
47188.6909726214 2733.33532688383 -5277.40489668552 0.0 0.0 0.0 0.0 0.0 0.0
32234.2598947329 -3219.62692065936 -5264.6650313831 0.0 0.0 0.0 0.0 0.0 0.0
32471.0822532796 -2667.04141738376 -1343.20236097774 0.0 0.0 0.0 0.0 0.0 0.0
46196.2015996984 3215.15258822428 -1303.73196788662 0.0 0.0 0.0 0.0 0.0 0.0
45959.3792411517 2662.56708494869 -5225.19463829198 0.0 0.0 0.0 0.0 0.0 0.0
31371.6670211805 -3138.21937399766 -5212.3076004042 0.0 0.0 0.0 0.0 0.0 0.0
31607.4085832533 -2588.15572916106 -1395.37247215764 0.0 0.0 0.0 0.0 0.0 0.0
44966.6815321163 3137.24696320877 -1356.08221181217 0.0 0.0 0.0 0.0 0.0 0.0
44730.9399700434 2587.18331837218 -5173.01734005873 0.0 0.0 0.0 0.0 0.0 0.0
30509.2332330167 -3058.80230783389 -5160.03803098914 0.0 0.0 0.0 0.0 0.0 0.0
30744.5872378566 -2509.64296320756 -1447.6482441225 0.0 0.0 0.0 0.0 0.0 0.0
43737.9514918898 3058.9417170924 -1408.42257664919 0.0 0.0 0.0 0.0 0.0 0.0
43502.59748705 2509.78237246607 -5120.81236351583 0.0 0.0 0.0 0.0 0.0 0.0
29646.735122468 -2980.15101265983 -5107.78240313891 0.0 0.0 0.0 0.0 0.0 0.0
29881.9822885208 -2431.24095853661 -1499.95129306592 0.0 0.0 0.0 0.0 0.0 0.0
42509.3911737762 2980.50570657287 -1460.74343205712 0.0 0.0 0.0 0.0 0.0 0.0
42274.1440077234 2431.59565244965 -5068.57454213011 0.0 0.0 0.0 0.0 0.0 0.0
28784.1420886051 -2901.74390135763 -5055.5194878167 0.0 0.0 0.0 0.0 0.0 0.0
29019.3797441065 -2352.85603852083 -1552.25515096007 0.0 0.0 0.0 0.0 0.0 0.0
41280.8049231048 2902.04046676412 -1513.04887504315 0.0 0.0 0.0 0.0 0.0 0.0
41045.5672676033 2353.15260392732 -5016.31321189979 0.0 0.0 0.0 0.0 0.0 0.0
27921.4773682591 -2823.38562816974 -5003.24698499571 0.0 0.0 0.0 0.0 0.0 0.0
28156.7296279917 -2274.46368879357 -1604.5538367182 0.0 0.0 0.0 0.0 0.0 0.0
40052.155646963 2823.57603362268 -1565.34512676276 0.0 0.0 0.0 0.0 0.0 0.0
39816.9033872304 2274.65409424651 -4964.03827504027 0.0 0.0 0.0 0.0 0.0 0.0
27058.7697510626 -2745.0179217632 -4950.96798176924 0.0 0.0 0.0 0.0 0.0 0.0
27294.0354249466 -2196.0646827006 -1656.84839673035 0.0 0.0 0.0 0.0 0.0 0.0
38823.4539725827 2745.11469485774 -1617.63745108303 0.0 0.0 0.0 0.0 0.0 0.0
38588.1882986987 2196.16145579514 -4911.75703612192 0.0 0.0 0.0 0.0 0.0 0.0
26196.0414629471 -2666.6335235575 -4898.68639072334 0.0 0.0 0.0 0.0 0.0 0.0
26431.312433217 -2117.66792626114 -1709.14194641483 0.0 0.0 0.0 0.0 0.0 0.0
37594.7179882968 2666.64874020162 -1669.93011803652 0.0 0.0 0.0 0.0 0.0 0.0
37359.4470180269 2117.68314290526 -4859.47456234503 0.0 0.0 0.0 0.0 0.0 0.0
25333.3085060632 -2588.2410378985 -4846.40600324258 0.0 0.0 0.0 0.0 0.0 0.0
25568.5753412603 -2039.28508910534 -1761.43838125766 0.0 0.0 0.0 0.0 0.0 0.0
36365.9620182075 2588.16634387205 -1722.22724205815 0.0 0.0 0.0 0.0 0.0 0.0
36130.6951830104 2039.21039507889 -4807.19486404307 0.0 0.0 0.0 0.0 0.0 0.0
24470.5842254615 -2509.85271016195 -4794.13080465362 0.0 0.0 0.0 0.0 0.0 0.0
24705.8369134336 -1960.92977156029 -1813.74253125609 0.0 0.0 0.0 0.0 0.0 0.0
35137.195870325 2509.652638536 -1774.5337499274 0.0 0.0 0.0 0.0 0.0 0.0
34901.9431823528 1960.72969993434 -4754.92202332493 0.0 0.0 0.0 0.0 0.0 0.0
23607.883113305 -2431.48140018683 -4741.86562293823 0.0 0.0 0.0 0.0 0.0 0.0
23843.1103367667 -1882.61787877634 -1866.06080721228 0.0 0.0 0.0 0.0 0.0 0.0
33908.4271918075 2431.08934481258 -1826.85626996868 0.0 0.0 0.0 0.0 0.0 0.0
33673.1999683459 1882.22582340209 -4702.66108569462 0.0 0.0 0.0 0.0 0.0 0.0
22745.22417418 -2353.14051988492 -4689.61676037425 0.0 0.0 0.0 0.0 0.0 0.0
22980.412598405 -1804.3675300266 -1918.40192617122 0.0 0.0 0.0 0.0 0.0 0.0
32679.6645181156 2352.45472127796 -1879.20385546705 0.0 0.0 0.0 0.0 0.0 0.0
32444.4760938906 1803.68173141964 -4650.41868967009 0.0 0.0 0.0 0.0 0.0 0.0
21882.6337735059 -2274.84416926907 -4637.39241872246 0.0 0.0 0.0 0.0 0.0 0.0
22117.7681591819 -1726.19726935847 -1970.77744452417 0.0 0.0 0.0 0.0 0.0 0.0
31450.9205688759 2273.72519193896 -1931.58838024484 0.0 0.0 0.0 0.0 0.0 0.0
31215.7861831999 1725.07829202836 -4598.20335444313 0.0 0.0 0.0 0.0 0.0 0.0
21020.1477441373 -2196.6060186633 -4585.2026750718 0.0 0.0 0.0 0.0 0.0 0.0
21255.2127107212 -1648.12109663406 -2023.2017389711 0.0 0.0 0.0 0.0 0.0 0.0
30222.2159870737 2194.88030751699 -1984.02424454044 0.0 0.0 0.0 0.0 0.0 0.0
29987.1510204897 1646.39538548775 -4546.02518064113 0.0 0.0 0.0 0.0 0.0 0.0
20157.8119869405 -2118.43569254009 -4533.05857655978 0.0 0.0 0.0 0.0 0.0 0.0
20392.7966433464 -1570.13816092617 -2075.69081806187 0.0 0.0 0.0 0.0 0.0 0.0
28993.5837980891 2115.91347682069 -2036.52670866088 0.0 0.0 0.0 0.0 0.0 0.0
28758.5991416832 1567.61594520677 -4493.89446715879 0.0 0.0 0.0 0.0 0.0 0.0
19295.6799265412 -2040.33103955697 -4480.96961129501 0.0 0.0 0.0 0.0 0.0 0.0
19530.5872447355 -1492.21396377043 -2128.25892107181 0.0 0.0 0.0 0.0 0.0 0.0
27765.0746605167 2036.85207156438 -2089.10770137277 0.0 0.0 0.0 0.0 0.0 0.0
27530.1673423224 1488.73499577783 -4441.81839159597 0.0 0.0 0.0 0.0 0.0 0.0
18433.8038933174 -1962.26397152104 -4428.93836569002 0.0 0.0 0.0 0.0 0.0 0.0
18668.6675854078 -1414.24868997659 -2180.91123895528 0.0 0.0 0.0 0.0 0.0 0.0
26536.7625289794 1957.79200012552 -2141.76729027353 0.0 0.0 0.0 0.0 0.0 0.0
26301.898836889 1409.77671858107 -4389.79441700827 0.0 0.0 0.0 0.0 0.0 0.0
17572.2156714509 -1884.15665310101 -4376.95057888739 0.0 0.0 0.0 0.0 0.0 0.0
17807.1283862124 -1336.02698532411 -2233.63024793942 0.0 0.0 0.0 0.0 0.0 0.0
25308.7495445303 1878.95351109784 -2194.4781288125 0.0 0.0 0.0 0.0 0.0 0.0
25073.8368297688 1330.82384332094 -4337.79845976047 0.0 0.0 0.0 0.0 0.0 0.0
16710.8889377311 -1805.84389181611 -4324.95806111821 0.0 0.0 0.0 0.0 0.0 0.0
16946.0467066337 -1257.14243104335 -2286.35208422927 0.0 0.0 0.0 0.0 0.0 0.0
24081.167625745 1800.76653429007 -2247.1591227455 0.0 0.0 0.0 0.0 0.0 0.0
23846.0098568424 1252.06507351731 -4285.76509963444 0.0 0.0 0.0 0.0 0.0 0.0
15849.6730248889 -1727.01686607682 -4272.85112784644 0.0 0.0 0.0 0.0 0.0 0.0
16085.4418063059 -1176.88970943706 -2338.92819826698 0.0 0.0 0.0 0.0 0.0 0.0
22854.172059834 1723.99468493213 -2299.63340136414 0.0 0.0 0.0 0.0 0.0 0.0
22618.403278417 1173.86752829236 -4233.5563309436 0.0 0.0 0.0 0.0 0.0 0.0
14988.1833407765 -1647.14333752109 -4220.41651946259 0.0 0.0 0.0 0.0 0.0 0.0
15225.193808865 -1094.11891198132 -2391.06646990945 0.0 0.0 0.0 0.0 0.0 0.0
21627.918982301 1649.90616234838 -2351.56472522804 0.0 0.0 0.0 0.0 0.0 0.0
21390.9085142125 1096.88173680861 -4180.91477478118 0.0 0.0 0.0 0.0 0.0 0.0
14125.6289054809 -1565.36101343165 -4167.27667239137 0.0 0.0 0.0 0.0 0.0 0.0
14364.9046688951 -1007.05089879862 -2442.24561986024 0.0 0.0 0.0 0.0 0.0 0.0
20402.513352754 1580.49567999807 -2402.36632595788 0.0 0.0 0.0 0.0 0.0 0.0
20163.2375893399 1022.18556536505 -4127.39737848901 0.0 0.0 0.0 0.0 0.0 0.0
13260.5518516797 -1480.3449633195 -4112.80755189391 0.0 0.0 0.0 0.0 0.0 0.0
13503.6732846777 -913.061619657597 -2491.59825081609 0.0 0.0 0.0 0.0 0.0 0.0
19177.90583845 1518.75233195913 -2451.07801198309 0.0 0.0 0.0 0.0 0.0 0.0
18934.7844054521 951.468988297234 -4072.28731306091 0.0 0.0 0.0 0.0 0.0 0.0
12390.4471407826 -1390.15853846975 -4056.03661867747 0.0 0.0 0.0 0.0 0.0 0.0
12639.7471298166 -808.458564057116 -2537.76328162455 0.0 0.0 0.0 0.0 0.0 0.0
17953.7038095018 1468.95144152226 -2496.21328345222 0.0 0.0 0.0 0.0 0.0 0.0
17704.4038204678 887.251467109627 -4014.48662050513 0.0 0.0 0.0 0.0 0.0 0.0
11511.2219275186 -1292.11222218486 -3995.53264704542 0.0 0.0 0.0 0.0 0.0 0.0
11770.0007707341 -688.294921348574 -2578.72152465878 0.0 0.0 0.0 0.0 0.0 0.0
16728.8396990873 1436.92176223137 -2535.59171745619 0.0 0.0 0.0 0.0 0.0 0.0
16470.0608558718 833.104461395088 -3952.40283984282 0.0 0.0 0.0 0.0 0.0 0.0
10616.4409961155 -1182.67768189942 -3929.31954644827 0.0 0.0 0.0 0.0 0.0 0.0
10889.1744410821 -546.299643644008 -2611.65523736861 0.0 0.0 0.0 0.0 0.0 0.0
15500.9995228609 1430.19681997549 -2566.19966320751 0.0 0.0 0.0 0.0 0.0 0.0
15228.2660778943 793.818781720075 -3883.86397228717 0.0 0.0 0.0 0.0 0.0 0.0
9696.28160928318 -1057.53942870067 -3854.88513031295 0.0 0.0 0.0 0.0 0.0 0.0
9988.77953857382 -375.04426035583 -2632.92411100244 0.0 0.0 0.0 0.0 0.0 0.0
14265.6431061606 1457.89726860993 -2584.17445612067 0.0 0.0 0.0 0.0 0.0 0.0
13973.14517687 775.402100265089 -3806.13547543117 0.0 0.0 0.0 0.0 0.0 0.0
8736.09759769215 -911.907949305119 -3769.42426874215 0.0 0.0 0.0 0.0 0.0 0.0
9055.53184644286 -166.561368886793 -2638.3496151688 0.0 0.0 0.0 0.0 0.0 0.0
13014.2931339496 1530.05061147323 -2585.11057371035 0.0 0.0 0.0 0.0 0.0 0.0
12694.8588851989 784.704031054906 -3716.1852272837 0.0 0.0 0.0 0.0 0.0 0.0
7714.47456062564 -741.300205665604 -3670.58009387667 0.0 0.0 0.0 0.0 0.0 0.0
8069.11080860782 86.1843729594821 -2624.17410362007 0.0 0.0 0.0 0.0 0.0 0.0
11731.5317745059 1655.79335834438 -2565.06806228971 0.0 0.0 0.0 0.0 0.0 0.0
11376.8955265237 828.308779719297 -3611.47405254631 0.0 0.0 0.0 0.0 0.0 0.0
6600.88265644593 -543.056263681327 -3558.14750658417 0.0 0.0 0.0 0.0 0.0 0.0
6998.99472524641 385.871896853125 -2589.42942128146 0.0 0.0 0.0 0.0 0.0 0.0
10389.5080238059 1838.94902480719 -2523.07740981471 0.0 0.0 0.0 0.0 0.0 0.0
9991.39595500541 910.020864272738 -3491.79549511742 0.0 0.0 0.0 0.0 0.0 0.0
5353.95717813533 -319.144194765906 -3437.5620315623 0.0 0.0 0.0 0.0 0.0 0.0
5800.26898752024 722.250027132212 -2541.03115339671 0.0 0.0 0.0 0.0 0.0 0.0
8938.12706109981 2067.0463443806 -2466.64585183256 0.0 0.0 0.0 0.0 0.0 0.0
8491.8152517149 1025.65212248248 -3363.17672999814 0.0 0.0 0.0 0.0 0.0 0.0
3924.831894926 -81.5087268367483 -3326.45004941824 0.0 0.0 0.0 0.0 0.0 0.0
4409.59806410171 1049.61233457324 -2504.12202566864 0.0 0.0 0.0 0.0 0.0 0.0
7287.7461472253 2283.10437019763 -2423.32766413936 0.0 0.0 0.0 0.0 0.0 0.0
6802.97997804959 1151.98330878765 -3245.65568788895 0.0 0.0 0.0 0.0 0.0 0.0
2285.69751755892 139.369243197753 -3265.50803989134 0.0 0.0 0.0 0.0 0.0 0.0
2747.54579554367 1217.01522516218 -2542.4739904936 0.0 0.0 0.0 0.0 0.0 0.0
5278.16496843576 2301.56629925879 -2465.49927749614 0.0 0.0 0.0 0.0 0.0 0.0
4816.31669045101 1223.92031729436 -3188.53332689388 0.0 0.0 0.0 0.0 0.0 0.0
540.009432704944 270.928212517012 -3330.73718591148 0.0 0.0 0.0 0.0 0.0 0.0
746.311445437404 752.29957555942 -2783.54408425069 0.0 0.0 0.0 0.0 0.0 0.0
2661.48730125016 1573.0892280506 -2749.16041546195 0.0 0.0 0.0 0.0 0.0 0.0
2455.1852885177 1091.71786500819 -3296.35351712274 0.0 0.0 0.0 0.0 0.0 0.0
-847.061145578126 69.4256079813353 -3617.20917644201 0.0 0.0 0.0 0.0 0.0 0.0
-1561.16678328162 -1596.82087999348 -3376.58034707076 0.0 0.0 0.0 0.0 0.0 0.0
-718.965880482241 -1235.8776359366 -3495.59795335468 0.0 0.0 0.0 0.0 0.0 0.0
-4.86024277874978 430.368852038211 -3736.22678272593 0.0 0.0 0.0 0.0 0.0 0.0
-958.682416605324 -1338.61329427507 -4087.60976882356 0.0 0.0 0.0 0.0 0.0 0.0
-3874.50224099276 -8142.19288451242 -4197.26559537263 0.0 0.0 0.0 0.0 0.0 0.0
-4258.2976339145 -8306.67662433602 -4683.23556610387 0.0 0.0 0.0 0.0 0.0 0.0
-1342.47780952706 -1503.09703409867 -4573.5797395548 0.0 0.0 0.0 0.0 0.0 0.0
631.880451004451 -6210.88601651362 -4140.18803156224 0.0 0.0 0.0 0.0 0.0 0.0
-5449.12553092435 -20399.8999743475 -4251.57653483435 0.0 0.0 0.0 0.0 0.0 0.0
-5838.98529237672 -20566.9827292556 -5265.07753182248 0.0 0.0 0.0 0.0 0.0 0.0
242.020689552079 -6377.96877142177 -5153.68902855038 0.0 0.0 0.0 0.0 0.0 0.0
1530.03277825912 -17408.8321275546 -2230.6077645278 0.0 0.0 0.0 0.0 0.0 0.0
-5104.02466508043 -32888.2994953469 -1734.48069804896 0.0 0.0 0.0 0.0 0.0 0.0
-3367.57993240451 -32144.1088956286 -2840.15693860555 0.0 0.0 0.0 0.0 0.0 0.0
3266.47751093504 -16664.6415278363 -3336.28400508439 0.0 0.0 0.0 0.0 0.0 0.0
57197.447543946 24513.1918045483 -2077.51818855241 0.0 0.0 0.0 0.0 0.0 0.0
50092.3214024122 7934.5641409693 2249.27230048781 0.0 0.0 0.0 0.0 0.0 0.0
65236.0881140529 14424.7498745296 1065.08461023216 0.0 0.0 0.0 0.0 0.0 0.0
72341.2142555868 31003.3775381086 -3261.70587880805 0.0 0.0 0.0 0.0 0.0 0.0
58135.0776552122 11381.4596778836 -5001.39566390296 0.0 0.0 0.0 0.0 0.0 0.0
53302.3921412773 105.193478702164 6.49427744799118 0.0 0.0 0.0 0.0 0.0 0.0
70830.0069360056 7617.0283907286 -798.953308207826 0.0 0.0 0.0 0.0 0.0 0.0
75662.6924499405 18893.29458991 -5806.84324955878 0.0 0.0 0.0 0.0 0.0 0.0
57234.753857563 1790.49135711033 -5722.84781837162 0.0 0.0 0.0 0.0 0.0 0.0
55219.1672735525 -2912.54400558084 -594.091291465336 0.0 0.0 0.0 0.0 0.0 0.0
73169.8151177245 4780.59078477859 -930.02238880042 0.0 0.0 0.0 0.0 0.0 0.0
75185.401701735 9483.62614746976 -6058.77891570671 0.0 0.0 0.0 0.0 0.0 0.0
55546.9975681888 -2772.04530787958 -5622.44828183128 0.0 0.0 0.0 0.0 0.0 0.0
55205.4391844432 -3569.01486995265 -667.131114197978 0.0 0.0 0.0 0.0 0.0 0.0
72549.0492711597 3863.9608814973 -724.057511488912 0.0 0.0 0.0 0.0 0.0 0.0
72890.6076549053 4660.93044357038 -5679.37467912221 0.0 0.0 0.0 0.0 0.0 0.0
53749.2852580638 -4193.08083840094 -5438.72146061261 0.0 0.0 0.0 0.0 0.0 0.0
54039.7736497844 -3515.27459105292 -670.928180100736 0.0 0.0 0.0 0.0 0.0 0.0
70727.050131576 3636.4153297149 -622.513448147305 0.0 0.0 0.0 0.0 0.0 0.0
70436.5617398554 2958.60908236687 -5390.30672865918 0.0 0.0 0.0 0.0 0.0 0.0
52108.1746338836 -4343.1027407247 -5331.62588517799 0.0 0.0 0.0 0.0 0.0 0.0
52537.2863413669 -3341.84208993033 -696.331463389597 0.0 0.0 0.0 0.0 0.0 0.0
68760.8168176263 3611.09954275226 -624.812845475713 0.0 0.0 0.0 0.0 0.0 0.0
68331.705110143 2609.83889195789 -5260.10726726411 0.0 0.0 0.0 0.0 0.0 0.0
50654.2528764909 -4148.85643202005 -5270.39310205123 0.0 0.0 0.0 0.0 0.0 0.0
51069.9790846686 -3178.82861293881 -738.871434061342 0.0 0.0 0.0 0.0 0.0 0.0
66930.3049226332 3618.45388904601 -669.583732698397 0.0 0.0 0.0 0.0 0.0 0.0
66514.5787144555 2648.42606996478 -5201.10540068828 0.0 0.0 0.0 0.0 0.0 0.0
49336.8858690309 -3921.58284821209 -5221.70424372564 0.0 0.0 0.0 0.0 0.0 0.0
49713.2485125119 -3043.40334675637 -788.441751361566 0.0 0.0 0.0 0.0 0.0 0.0
65229.6672357862 3606.49039178975 -725.714644114728 0.0 0.0 0.0 0.0 0.0 0.0
64853.3045923052 2728.31089033403 -5158.9771364788 0.0 0.0 0.0 0.0 0.0 0.0
48100.6149997591 -3734.53199507901 -5174.06010927167 0.0 0.0 0.0 0.0 0.0 0.0
48444.5348515086 -2932.05234099691 -840.273790705499 0.0 0.0 0.0 0.0 0.0 0.0
63612.7869664902 3568.62713685235 -782.953815413921 0.0 0.0 0.0 0.0 0.0 0.0
63268.8671147407 2766.14748277026 -5116.7401339801 0.0 0.0 0.0 0.0 0.0 0.0
46906.6771187277 -3591.13422647441 -5125.01423144962 0.0 0.0 0.0 0.0 0.0 0.0
47230.0396030927 -2836.62176295622 -892.656567575124 0.0 0.0 0.0 0.0 0.0 0.0
62043.2914266534 3511.91473285553 -838.762820180967 0.0 0.0 0.0 0.0 0.0 0.0
61719.9289422885 2757.40226933733 -5071.12048405546 0.0 0.0 0.0 0.0 0.0 0.0
45732.7037340387 -3478.33713540791 -5074.54542510025 0.0 0.0 0.0 0.0 0.0 0.0
46044.7793243881 -2750.16075792605 -945.111036923134 0.0 0.0 0.0 0.0 0.0 0.0
60497.799683008 3443.99082433963 -893.098438531572 0.0 0.0 0.0 0.0 0.0 0.0
60185.7240926587 2715.81444685777 -5022.53282670869 0.0 0.0 0.0 0.0 0.0 0.0
44567.2356489487 -3383.39376168581 -5023.16592275885 0.0 0.0 0.0 0.0 0.0 0.0
44873.7065562576 -2668.2949779651 -997.521173512441 0.0 0.0 0.0 0.0 0.0 0.0
58963.46317862 3370.17214590451 -946.442688960961 0.0 0.0 0.0 0.0 0.0 0.0
58656.9922713111 2655.0733621838 -4972.08743820737 0.0 0.0 0.0 0.0 0.0 0.0
43404.9530122231 -3297.76078255129 -4971.28821228701 0.0 0.0 0.0 0.0 0.0 0.0
43708.895213398 -2588.56231314318 -1049.88157765628 0.0 0.0 0.0 0.0 0.0 0.0
57433.8184346056 3293.54763880292 -999.224544127127 0.0 0.0 0.0 0.0 0.0 0.0
57129.8762334307 2584.34916939481 -4920.63117875786 0.0 0.0 0.0 0.0 0.0 0.0
42243.6335837431 -3216.53158299528 -4919.16694982839 0.0 0.0 0.0 0.0 0.0 0.0
42546.5490857157 -2509.72874505926 -1102.20701028938 0.0 0.0 0.0 0.0 0.0 0.0
55905.9088741022 3215.71116424925 -1051.72109329395 0.0 0.0 0.0 0.0 0.0 0.0
55602.9933721296 2508.90832631322 -4868.68103283296 0.0 0.0 0.0 0.0 0.0 0.0
41082.4650406494 -3137.19333580196 -4866.93716199305 0.0 0.0 0.0 0.0 0.0 0.0
41385.0219948905 -2431.22710923945 -1154.51198036234 0.0 0.0 0.0 0.0 0.0 0.0
54378.5101305979 3137.41066320661 -1104.08582132216 0.0 0.0 0.0 0.0 0.0 0.0
54075.9531763568 2431.44443664409 -4816.51100295287 0.0 0.0 0.0 0.0 0.0 0.0
39921.2145107241 -3058.57317388219 -4814.66394584325 0.0 0.0 0.0 0.0 0.0 0.0
40223.6786795996 -2352.82344650595 -1206.80612646307 0.0 0.0 0.0 0.0 0.0 0.0
52851.1810474302 3058.96328256433 -1156.39543165048 0.0 0.0 0.0 0.0 0.0 0.0
52548.7168785547 2353.21355518809 -4764.25325103067 0.0 0.0 0.0 0.0 0.0 0.0
38759.8547734266 -2980.17654915151 -4762.37590630573 0.0 0.0 0.0 0.0 0.0 0.0
39062.3157800005 -2274.43420047924 -1259.09511210519 0.0 0.0 0.0 0.0 0.0 0.0
51323.7985597024 2980.48699082157 -1208.68494434289 0.0 0.0 0.0 0.0 0.0 0.0
51021.3375531285 2274.7446421493 -4711.96573854343 0.0 0.0 0.0 0.0 0.0 0.0
37598.4142441261 -2901.82057299684 -4710.08451210231 0.0 0.0 0.0 0.0 0.0 0.0
37900.8926935214 -2196.03752440763 -1311.3821762503 0.0 0.0 0.0 0.0 0.0 0.0
49796.3508690035 2902.01597937038 -1260.96910135107 0.0 0.0 0.0 0.0 0.0 0.0
49493.8724196081 2196.23293078117 -4659.67143720308 0.0 0.0 0.0 0.0 0.0 0.0
36436.9253452572 -2823.45210223518 -4657.79408560945 0.0 0.0 0.0 0.0 0.0 0.0
36739.4188626035 -2117.63389509366 -1363.66950947653 0.0 0.0 0.0 0.0 0.0 0.0
48268.8548790688 2823.55296910572 -1313.25392325213 0.0 0.0 0.0 0.0 0.0 0.0
47966.3613617224 2117.73476196421 -4607.37849938506 0.0 0.0 0.0 0.0 0.0 0.0
35275.4119080477 -2745.06544704614 -4605.50662073853 0.0 0.0 0.0 0.0 0.0 0.0
35577.9124887286 -2039.23075879071 -1415.9592822251 0.0 0.0 0.0 0.0 0.0 0.0
46741.3281735256 2745.09024897942 -1365.54251877829 0.0 0.0 0.0 0.0 0.0 0.0
46438.8275928447 2039.255560724 -4555.08985729171 0.0 0.0 0.0 0.0 0.0 0.0
34113.8896834423 -2666.66910391344 -4553.22402823165 0.0 0.0 0.0 0.0 0.0 0.0
34416.3888648927 -1960.83768052912 -1468.2544649435 0.0 0.0 0.0 0.0 0.0 0.0
45213.7823364012 2666.6166644031 -1417.83793470176 0.0 0.0 0.0 0.0 0.0 0.0
44911.2831549508 1960.78524101878 -4502.80749798992 0.0 0.0 0.0 0.0 0.0 0.0
32952.3700290381 -2588.27432446683 -4500.94924621028 0.0 0.0 0.0 0.0 0.0 0.0
33254.8595034318 -1882.46555088147 -1520.55957592724 0.0 0.0 0.0 0.0 0.0 0.0
43686.2233494224 2588.11895454309 -1470.14466352829 0.0 0.0 0.0 0.0 0.0 0.0
43383.7338750287 1882.31018095773 -4450.53433381133 0.0 0.0 0.0 0.0 0.0 0.0
31790.8636014527 -2509.89236601538 -4448.68691169446 0.0 0.0 0.0 0.0 0.0 0.0
32093.3345175038 -1804.12689522932 -1572.88143492819 0.0 0.0 0.0 0.0 0.0 0.0
42158.6536861858 2509.58131992009 -1522.46961558633 0.0 0.0 0.0 0.0 0.0 0.0
41856.1827701346 1803.81584913403 -4398.2750923526 0.0 0.0 0.0 0.0 0.0 0.0
30629.383419587 -2431.53450862226 -4396.4438546296 0.0 0.0 0.0 0.0 0.0 0.0
30931.8256993253 -1725.83585589942 -1625.22990100718 0.0 0.0 0.0 0.0 0.0 0.0
40631.0745370038 2430.98507453423 -1574.82285438412 0.0 0.0 0.0 0.0 0.0 0.0
40328.6322572655 1725.28642181138 -4346.03680800654 0.0 0.0 0.0 0.0 0.0 0.0
29467.9473644096 -2353.21228514901 -4344.22939998325 0.0 0.0 0.0 0.0 0.0 0.0
29770.3496940657 -1647.60684928467 -1677.61843246961 0.0 0.0 0.0 0.0 0.0 0.0
39103.4880803635 2352.3096019858 -1627.21804419358 0.0 0.0 0.0 0.0 0.0 0.0
38801.0857507074 1646.70416612146 -4293.82901170723 0.0 0.0 0.0 0.0 0.0 0.0
28306.5801456796 -2274.93665573589 -4292.0552328659 0.0 0.0 0.0 0.0 0.0 0.0
28608.9312493277 -1569.45074722367 -1730.06409281264 0.0 0.0 0.0 0.0 0.0 0.0
37575.9002395141 2273.53596285622 -1679.67224220462 0.0 0.0 0.0 0.0 0.0 0.0
37273.549135866 1568.050054344 -4241.66338225789 0.0 0.0 0.0 0.0 0.0 0.0
27145.3144039372 -2196.71510953389 -4239.93431543099 0.0 0.0 0.0 0.0 0.0 0.0
27447.6064853602 -1491.3669195468 -1782.58629821733 0.0 0.0 0.0 0.0 0.0 0.0
36048.324545608 2194.65510627369 -1732.20428464682 0.0 0.0 0.0 0.0 0.0 0.0
35746.032464185 1489.3069162866 -4189.55230186048 0.0 0.0 0.0 0.0 0.0 0.0
25984.1900295935 -2118.54540058966 -4187.87798115242 0.0 0.0 0.0 0.0 0.0 0.0
26286.4257542932 -1413.32870962382 -1835.20310792299 0.0 0.0 0.0 0.0 0.0 0.0
34520.7878105962 2115.68360022033 -1784.83048713972 0.0 0.0 0.0 0.0 0.0 0.0
34218.5520858965 1410.46690925449 -4137.50536036915 0.0 0.0 0.0 0.0 0.0 0.0
24823.2499306655 -2040.40406260712 -4135.88982355849 0.0 0.0 0.0 0.0 0.0 0.0
25125.4549682343 -1335.25897494644 -1887.92314480435 0.0 0.0 0.0 0.0 0.0 0.0
32993.3383438738 2036.69104318477 -1837.55563854287 0.0 0.0 0.0 0.0 0.0 0.0
32691.133306305 1331.54595552409 -4085.52231729702 0.0 0.0 0.0 0.0 0.0 0.0
23662.5292690236 -1962.22713175102 -4083.95431429129 0.0 0.0 0.0 0.0 0.0 0.0
23964.7731880997 -1256.99132057344 -1940.73025863051 0.0 0.0 0.0 0.0 0.0 0.0
31466.0573829125 1957.84476291773 -1890.35627211782 0.0 0.0 0.0 0.0 0.0 0.0
31163.8134638364 1252.60895174015 -4033.58032777861 0.0 0.0 0.0 0.0 0.0 0.0
22502.0335004118 -1883.87975815398 -4032.01722945245 0.0 0.0 0.0 0.0 0.0 0.0
22804.4626095133 -1178.21183691721 -1993.5567995659 0.0 0.0 0.0 0.0 0.0 0.0
29939.0741141162 1879.47880791261 -1943.15194804899 0.0 0.0 0.0 0.0 0.0 0.0
29636.6450050147 1173.81088667584 -3981.61237793553 0.0 0.0 0.0 0.0 0.0 0.0
21341.6982621853 -1805.11084291491 -3979.95400776401 0.0 0.0 0.0 0.0 0.0 0.0
21644.5846581372 -1098.37591902712 -2046.2399332805 0.0 0.0 0.0 0.0 0.0 0.0
28412.5839188295 1802.19519269814 -1995.75886728852 0.0 0.0 0.0 0.0 0.0 0.0
28109.6975228776 1095.46026881035 -3929.47294177202 0.0 0.0 0.0 0.0 0.0 0.0
20181.3211125157 -1725.48886715064 -3927.52130669753 0.0 0.0 0.0 0.0 0.0 0.0
20485.1324544069 -1016.59573607108 -2098.45403605537 0.0 0.0 0.0 0.0 0.0 0.0
26886.8679016545 1727.00516989216 -2047.81881240683 0.0 0.0 0.0 0.0 0.0 0.0
26583.0565597633 1018.11203881261 -3876.88608304899 0.0 0.0 0.0 0.0 0.0 0.0
19020.4510614458 -1644.31633305441 -3874.28668931634 0.0 0.0 0.0 0.0 0.0 0.0
19325.9450912051 -931.496930282818 -2149.61137440333 0.0 0.0 0.0 0.0 0.0 0.0
25362.3086934006 1655.51604208669 -2098.69570277679 0.0 0.0 0.0 0.0 0.0 0.0
25056.8146636413 942.696639315096 -3823.3710176898 0.0 0.0 0.0 0.0 0.0 0.0
17858.2161439031 -1560.52362198366 -3819.53236150636 0.0 0.0 0.0 0.0 0.0 0.0
18166.5624018063 -841.049020209572 -2198.72397987136 0.0 0.0 0.0 0.0 0.0 0.0
23839.3917375288 1590.16355224294 -2147.3329368875 0.0 0.0 0.0 0.0 0.0 0.0
23531.0454796256 870.68895046885 -3768.1413185225 0.0 0.0 0.0 0.0 0.0 0.0
16693.0603838241 -1472.54988505908 -3762.1325883934 0.0 0.0 0.0 0.0 0.0 0.0
17005.9890558964 -742.38298355699 -2244.22357648959 0.0 0.0 0.0 0.0 0.0 0.0
22318.6705975598 1534.48053429872 -2192.06879781087 0.0 0.0 0.0 0.0 0.0 0.0
22005.7419254874 804.313632796633 -3709.97780971468 0.0 0.0 0.0 0.0 0.0 0.0
15522.3461022664 -1378.22996368416 -3700.4131328802 0.0 0.0 0.0 0.0 0.0 0.0
15842.3210626177 -631.621722864385 -2283.74652323803 0.0 0.0 0.0 0.0 0.0 0.0
20800.6541963653 1493.37819159887 -2230.41736317948 0.0 0.0 0.0 0.0 0.0 0.0
20480.679236014 746.769950779091 -3647.08397282164 0.0 0.0 0.0 0.0 0.0 0.0
14341.7474414247 -1274.72470337568 -3632.01877806901 0.0 0.0 0.0 0.0 0.0 0.0
14672.1610271514 -503.759670013379 -2313.91165103315 0.0 0.0 0.0 0.0 0.0 0.0
19285.5359717769 1473.4010205404 -2258.8427200787 0.0 0.0 0.0 0.0 0.0 0.0
18955.1223860502 702.4359871781 -3576.94984711456 0.0 0.0 0.0 0.0 0.0 0.0
13144.3066811604 -1158.55438972378 -3553.84746325682 0.0 0.0 0.0 0.0 0.0 0.0
13489.6964403905 -352.644951520268 -2330.16002789611 0.0 0.0 0.0 0.0 0.0 0.0
17772.602464153 1482.8862015208 -2272.59506802443 0.0 0.0 0.0 0.0 0.0 0.0
17427.2127049229 676.976763317291 -3496.28250338514 0.0 0.0 0.0 0.0 0.0 0.0
11918.9122194288 -1025.8381890753 -3462.17079905914 0.0 0.0 0.0 0.0 0.0 0.0
12285.2245192963 -171.109489384403 -2326.79993535823 0.0 0.0 0.0 0.0 0.0 0.0
16259.0225422495 1531.94680616697 -2265.7478853803 0.0 0.0 0.0 0.0 0.0 0.0
15892.710242382 677.218106476081 -3401.11874908122 0.0 0.0 0.0 0.0 0.0 0.0
10647.8269118705 -872.851321138337 -3353.16341419418 0.0 0.0 0.0 0.0 0.0 0.0
11042.7182357448 48.5617679017832 -2297.56187741681 0.0 0.0 0.0 0.0 0.0 0.0
14737.3236144656 1631.96407306785 -2231.74665677109 0.0 0.0 0.0 0.0 0.0 0.0
14342.4322905913 710.550984027725 -3287.34819354846 0.0 0.0 0.0 0.0 0.0 0.0
9302.5824162443 -697.210726169863 -3224.28931024453 0.0 0.0 0.0 0.0 0.0 0.0
9735.77533330597 313.572746974027 -2237.23100032209 0.0 0.0 0.0 0.0 0.0 0.0
13190.4794180345 1794.16021185767 -2165.03218081182 0.0 0.0 0.0 0.0 0.0 0.0
12757.2865009728 783.376738713785 -3152.09049073425 0.0 0.0 0.0 0.0 0.0 0.0
7838.08256121497 -499.724155350686 -3077.33032050553 0.0 0.0 0.0 0.0 0.0 0.0
8320.89529173677 626.838882533505 -2145.82335233928 0.0 0.0 0.0 0.0 0.0 0.0
11581.1696803186 2024.09933478288 -2065.35456391898 0.0 0.0 0.0 0.0 0.0 0.0
11098.3569497968 897.536296898687 -2996.86153208523 0.0 0.0 0.0 0.0 0.0 0.0
6185.74820868655 -288.224153059445 -2924.83318839567 0.0 0.0 0.0 0.0 0.0 0.0
6726.94917245155 974.578095725559 -2037.74063086838 0.0 0.0 0.0 0.0 0.0 0.0
9831.77312379709 2305.21693201651 -1947.54047024088 0.0 0.0 0.0 0.0 0.0 0.0
9290.57216003209 1042.4146832315 -2834.63302776817 0.0 0.0 0.0 0.0 0.0 0.0
4255.51971567726 -84.6059571777073 -2802.9462936229 0.0 0.0 0.0 0.0 0.0 0.0
4843.25975194774 1286.78746078675 -1963.73446723118 0.0 0.0 0.0 0.0 0.0 0.0
7780.50114431879 2545.60520037434 -1865.77779451943 0.0 0.0 0.0 0.0 0.0 0.0
7192.7611080483 1174.21178240988 -2704.98962091115 0.0 0.0 0.0 0.0 0.0 0.0
2020.28007202968 76.9390265361518 -2794.58870685777 0.0 0.0 0.0 0.0 0.0 0.0
2522.9580944286 1249.85441213361 -2064.67092690864 0.0 0.0 0.0 0.0 0.0 0.0
5077.67032425055 2344.73108205731 -1980.89125650882 0.0 0.0 0.0 0.0 0.0 0.0
4574.99230185164 1171.81569645985 -2710.80903645795 0.0 0.0 0.0 0.0 0.0 0.0
-143.389449600317 107.134036121222 -3051.73729417262 0.0 0.0 0.0 0.0 0.0 0.0
-345.943300473943 -365.49161591724 -2616.44563017608 0.0 0.0 0.0 0.0 0.0 0.0
1177.57752351395 287.445880077572 -2650.20460532168 0.0 0.0 0.0 0.0 0.0 0.0
1380.13137438758 760.071532116034 -3085.49626931823 0.0 0.0 0.0 0.0 0.0 0.0
-969.455229518762 -632.711014079306 -3694.42741637621 0.0 0.0 0.0 0.0 0.0 0.0
-3624.3922917398 -6827.56415926172 -3761.42617418166 0.0 0.0 0.0 0.0 0.0 0.0
-3858.88794405888 -6928.0622959699 -4203.91568455183 0.0 0.0 0.0 0.0 0.0 0.0
-1203.95088183785 -733.209150787485 -4136.91692674638 0.0 0.0 0.0 0.0 0.0 0.0
875.926031726781 -4898.85630634747 -4231.87963662816 0.0 0.0 0.0 0.0 0.0 0.0
-6537.18878361699 -22196.1242088163 -4495.69655612534 0.0 0.0 0.0 0.0 0.0 0.0
-7460.54800185713 -22591.849588062 -5731.21569201597 0.0 0.0 0.0 0.0 0.0 0.0
-47.4331865133545 -5294.58168559324 -5467.39877251879 0.0 0.0 0.0 0.0 0.0 0.0
2568.27401969477 -18293.7830073969 -2566.90302938725 0.0 0.0 0.0 0.0 0.0 0.0
-7085.25938827369 -40818.6942926567 -2042.35652781159 0.0 0.0 0.0 0.0 0.0 0.0
-5249.3466327589 -40031.8745402932 -3651.278762473 0.0 0.0 0.0 0.0 0.0 0.0
4404.18677520956 -17506.9632550335 -4175.82526404866 0.0 0.0 0.0 0.0 0.0 0.0
72341.2142555868 31003.3775381086 -3261.70587880805 0.0 0.0 0.0 0.0 0.0 0.0
62791.7437465795 8721.27968375832 1291.03442158261 0.0 0.0 0.0 0.0 0.0 0.0
78726.3347979468 15550.3901343443 -300.54399658527 0.0 0.0 0.0 0.0 0.0 0.0
88275.8053069541 37832.4879886946 -4853.28429697593 0.0 0.0 0.0 0.0 0.0 0.0
73218.3480824671 13189.8243991387 -5580.89343820834 0.0 0.0 0.0 0.0 0.0 0.0
67368.1039425181 -460.745260742231 -298.867782396795 0.0 0.0 0.0 0.0 0.0 0.0
85855.1937378585 7462.29322297508 -1273.90847238829 0.0 0.0 0.0 0.0 0.0 0.0
91705.4378778075 21112.862882856 -6555.93412819983 0.0 0.0 0.0 0.0 0.0 0.0
71723.4987082475 1405.85249599893 -5558.69338989568 0.0 0.0 0.0 0.0 0.0 0.0
69768.2438825876 -3156.40876387415 -355.80028918944 0.0 0.0 0.0 0.0 0.0 0.0
87978.3697350594 4647.9308871852 -681.676093466088 0.0 0.0 0.0 0.0 0.0 0.0
89933.6245607193 9210.19214705828 -5884.56919417232 0.0 0.0 0.0 0.0 0.0 0.0
69489.0364197685 -3276.06910508236 -5105.15257951123 0.0 0.0 0.0 0.0 0.0 0.0
69401.8448381008 -3479.51612897354 -223.313128216488 0.0 0.0 0.0 0.0 0.0 0.0
86488.2829176324 3843.24304796858 -237.84505849443 0.0 0.0 0.0 0.0 0.0 0.0
86575.4744993001 4046.69007185976 -5119.68450978918 0.0 0.0 0.0 0.0 0.0 0.0
67289.3573067965 -4384.86792810397 -4889.56234538676 0.0 0.0 0.0 0.0 0.0 0.0
67726.8716268212 -3364.00118137952 -207.389698085741 0.0 0.0 0.0 0.0 0.0 0.0
84114.4758923748 3659.257789572 -134.47064474828 0.0 0.0 0.0 0.0 0.0 0.0
83676.96157235 2638.39104284755 -4816.6432920493 0.0 0.0 0.0 0.0 0.0 0.0
65331.5266053882 -4390.57761913653 -4844.98351720254 0.0 0.0 0.0 0.0 0.0 0.0
65834.9234158237 -3215.98506145384 -260.933454897047 0.0 0.0 0.0 0.0 0.0 0.0
81879.0986338929 3660.09003200441 -177.03398649114 0.0 0.0 0.0 0.0 0.0 0.0
81375.7018234574 2485.49747432172 -4761.08404879664 0.0 0.0 0.0 0.0 0.0 0.0
63588.6853126529 -4178.65853424132 -4837.22601010962 0.0 0.0 0.0 0.0 0.0 0.0
64061.9933463891 -3074.27312219001 -331.553188862086 0.0 0.0 0.0 0.0 0.0 0.0
79831.8482207555 3684.23610968129 -252.668516572706 0.0 0.0 0.0 0.0 0.0 0.0
79358.5401870192 2579.85069762998 -4758.34133782024 0.0 0.0 0.0 0.0 0.0 0.0
61984.9930160612 -3964.41612090199 -4820.94659264249 0.0 0.0 0.0 0.0 0.0 0.0
62419.1373779839 -2951.41260974886 -400.144172140652 0.0 0.0 0.0 0.0 0.0 0.0
77891.9458497404 3679.7910210039 -327.786778486857 0.0 0.0 0.0 0.0 0.0 0.0
77457.8014878176 2666.78750985076 -4748.5891989887 0.0 0.0 0.0 0.0 0.0 0.0
60458.3372569385 -3791.75551876835 -4791.16966200602 0.0 0.0 0.0 0.0 0.0 0.0
60863.0478192398 -2847.43087339864 -462.741301934735 0.0 0.0 0.0 0.0 0.0 0.0
76012.5470794893 3645.21166670829 -395.289541551184 0.0 0.0 0.0 0.0 0.0 0.0
75607.836517188 2700.88702133857 -4723.71790162247 0.0 0.0 0.0 0.0 0.0 0.0
58970.1897950381 -3658.65574091366 -4750.90797057628 0.0 0.0 0.0 0.0 0.0 0.0
59357.2322696081 -2755.55663358366 -520.647013297049 0.0 0.0 0.0 0.0 0.0 0.0
74163.1456200854 3589.83480233519 -456.13993420205 0.0 0.0 0.0 0.0 0.0 0.0
73776.1031455154 2686.73569500518 -4686.40089148128 0.0 0.0 0.0 0.0 0.0 0.0
57499.6649356133 -3551.65691958141 -4704.41701982477 0.0 0.0 0.0 0.0 0.0 0.0
57877.1933079934 -2670.75738402791 -575.665693629845 0.0 0.0 0.0 0.0 0.0 0.0
72327.8229496756 3522.36960526448 -512.744298233166 0.0 0.0 0.0 0.0 0.0 0.0
71950.2945772956 2641.47006971098 -4641.49562442809 0.0 0.0 0.0 0.0 0.0 0.0
56036.3858962964 -3459.67484618374 -4654.65469330564 0.0 0.0 0.0 0.0 0.0 0.0
56409.2868539664 -2589.57261162053 -629.157136272865 0.0 0.0 0.0 0.0 0.0 0.0
70498.5283035811 3448.67372392864 -567.006976661207 0.0 0.0 0.0 0.0 0.0 0.0
70125.6273459112 2578.57148936543 -4592.50453369398 0.0 0.0 0.0 0.0 0.0 0.0
54575.6999087771 -3375.39558813023 -4603.34562606976 0.0 0.0 0.0 0.0 0.0 0.0
54946.5455525113 -2510.08908608369 -681.916966065583 0.0 0.0 0.0 0.0 0.0 0.0
68671.5458625259 3372.05390392258 -620.109358776544 0.0 0.0 0.0 0.0 0.0 0.0
68300.7002187917 2506.74740187604 -4541.53801878072 0.0 0.0 0.0 0.0 0.0 0.0
53115.7204900353 -3294.72839857339 -4551.37345477141 0.0 0.0 0.0 0.0 0.0 0.0
53485.7501533958 -2431.32585073234 -734.360026421722 0.0 0.0 0.0 0.0 0.0 0.0
66845.2971526197 3294.1942917922 -672.688415861647 0.0 0.0 0.0 0.0 0.0 0.0
66475.2674892593 2430.79174395115 -4489.70184421134 0.0 0.0 0.0 0.0 0.0 0.0
51655.7944556505 -3215.59257833749 -4499.14993608063 0.0 0.0 0.0 0.0 0.0 0.0
52025.5489522523 -2352.83208626653 -786.680993492849 0.0 0.0 0.0 0.0 0.0 0.0
65019.1902513095 3215.87132761515 -725.055244059209 0.0 0.0 0.0 0.0 0.0 0.0
64649.4357547077 2353.11083554419 -4437.52418664699 0.0 0.0 0.0 0.0 0.0 0.0
50195.7557002091 -3137.02919428505 -4446.84842320135 0.0 0.0 0.0 0.0 0.0 0.0
50565.445572918 -2274.41949129753 -838.962854426289 0.0 0.0 0.0 0.0 0.0 0.0
63193.0450636308 3137.40886186507 -777.347875641466 0.0 0.0 0.0 0.0 0.0 0.0
62823.3551909218 2274.79915887755 -4385.23344441653 0.0 0.0 0.0 0.0 0.0 0.0
48735.6020786163 -3058.63813171255 -4394.53316131924 0.0 0.0 0.0 0.0 0.0 0.0
49105.2955124213 -2196.02011950095 -891.236896721983 0.0 0.0 0.0 0.0 0.0 0.0
61366.8324385117 3058.92427739493 -829.621324421155 0.0 0.0 0.0 0.0 0.0 0.0
60997.1390047067 2196.30626518334 -4332.91758901841 0.0 0.0 0.0 0.0 0.0 0.0
47275.369372327 -2980.27417954135 -4342.22338958217 0.0 0.0 0.0 0.0 0.0 0.0
47645.0802288675 -2117.6155142801 -943.513005748652 0.0 0.0 0.0 0.0 0.0 0.0
59540.5665722849 2980.45006147018 -881.894529658563 0.0 0.0 0.0 0.0 0.0 0.0
59170.8557157443 2117.79139620893 -4280.60491349209 0.0 0.0 0.0 0.0 0.0 0.0
45815.0907215865 -2901.89673168628 -4289.92240378264 0.0 0.0 0.0 0.0 0.0 0.0
46184.8156143966 -2039.20531512934 -995.79358513261 0.0 0.0 0.0 0.0 0.0 0.0
57714.2664796717 2901.9879128457 -934.172769664258 0.0 0.0 0.0 0.0 0.0 0.0
57344.5415868616 2039.29649628876 -4228.30158831429 0.0 0.0 0.0 0.0 0.0 0.0
44354.7883281726 -2823.50272351107 -4237.62951917219 0.0 0.0 0.0 0.0 0.0 0.0
44724.5202950625 -1960.79480076797 -1048.07951038869 0.0 0.0 0.0 0.0 0.0 0.0
55887.9453258047 2823.53021240727 -986.45751590704 0.0 0.0 0.0 0.0 0.0 0.0
55518.2133589148 1960.82228966418 -4176.00752469054 0.0 0.0 0.0 0.0 0.0 0.0
42894.4752764876 -2745.09980872861 -4185.34448960032 0.0 0.0 0.0 0.0 0.0 0.0
43264.2076834532 -1882.39085914229 -1100.37258002755 0.0 0.0 0.0 0.0 0.0 0.0
54061.6093669579 2745.06700521687 -1038.75051219995 0.0 0.0 0.0 0.0 0.0 0.0
53691.8769599923 1882.35805563055 -4123.72242177272 0.0 0.0 0.0 0.0 0.0 0.0
41434.1592220807 -2666.69734258766 -4133.06897913711 0.0 0.0 0.0 0.0 0.0 0.0
41803.8861319296 -1804.00121960676 -1152.67665264732 0.0 0.0 0.0 0.0 0.0 0.0
52235.2592746439 2666.58727012793 -1091.05550100583 0.0 0.0 0.0 0.0 0.0 0.0
51865.5323647949 1803.89114714702 -4071.44782749562 0.0 0.0 0.0 0.0 0.0 0.0
39973.8455526418 -2588.30432501582 -4080.80708147163 0.0 0.0 0.0 0.0 0.0 0.0
40343.5611448732 -1725.63460980935 -1204.998417397 0.0 0.0 0.0 0.0 0.0 0.0
50408.8914691344 2588.07838630261 -1143.37915202511 0.0 0.0 0.0 0.0 0.0 0.0
50039.175876903 1725.40867109614 -4019.18781609974 0.0 0.0 0.0 0.0 0.0 0.0
38513.5397159528 -2509.92950791805 -4028.56560981721 0.0 0.0 0.0 0.0 0.0 0.0
38883.2377691412 -1647.30071714533 -1257.34810702438 0.0 0.0 0.0 0.0 0.0 0.0
48582.499028916 2509.52553704391 -1195.73176482633 0.0 0.0 0.0 0.0 0.0 0.0
48212.8009757277 1646.89674627119 -3966.94926761916 0.0 0.0 0.0 0.0 0.0 0.0
37053.2489828447 -2431.5816255581 -3976.35426434749 0.0 0.0 0.0 0.0 0.0 0.0
37422.9228725567 -1569.0092162302 -1309.74009427734 0.0 0.0 0.0 0.0 0.0 0.0
46756.0724678022 2430.91203887504 -1248.12777932534 0.0 0.0 0.0 0.0 0.0 0.0
46386.3985780902 1568.33962954714 -3914.7419493955 0.0 0.0 0.0 0.0 0.0 0.0
35592.9839280591 -2353.26876387199 -3924.18543234164 0.0 0.0 0.0 0.0 0.0 0.0
35962.627520221 -1490.76704882767 -1362.19301225333 0.0 0.0 0.0 0.0 0.0 0.0
44929.6009905301 2352.2215813048 -1300.58574689302 0.0 0.0 0.0 0.0 0.0 0.0
44559.9573983682 1489.71986626048 -3862.57816698133 0.0 0.0 0.0 0.0 0.0 0.0
34132.7597448919 -2274.99609539729 -3872.07307190918 0.0 0.0 0.0 0.0 0.0 0.0
34502.3697273141 -1412.57280307872 -1414.72867679771 0.0 0.0 0.0 0.0 0.0 0.0
43103.0751102043 2273.44378958848 -1353.12701306067 0.0 0.0 0.0 0.0 0.0 0.0
42733.465127782 1411.02049726992 -3810.47140817214 0.0 0.0 0.0 0.0 0.0 0.0
32672.5972676026 -2196.76100009793 -3820.02975252004 0.0 0.0 0.0 0.0 0.0 0.0
33042.1777579802 -1334.40652255034 -1467.36857171584 0.0 0.0 0.0 0.0 0.0 0.0
41276.4918907949 2194.58524865597 -1405.77182331958 0.0 0.0 0.0 0.0 0.0 0.0
40906.9114004173 1332.23077110837 -3758.43300412378 0.0 0.0 0.0 0.0 0.0 0.0
31212.523253689 -2118.54416724657 -3768.06040187314 0.0 0.0 0.0 0.0 0.0 0.0
31582.0939072254 -1256.21264232818 -1520.12591018705 0.0 0.0 0.0 0.0 0.0 0.0
39449.8646281267 2115.68909520096 -1458.5308012643 0.0 0.0 0.0 0.0 0.0 0.0
39080.2939745903 1253.35757028256 -3706.4652929504 0.0 0.0 0.0 0.0 0.0 0.0
29752.569027188 -2040.2947337728 -3716.15059942278 0.0 0.0 0.0 0.0 0.0 0.0
30122.1783023021 -1177.87309183971 -1572.99025264521 0.0 0.0 0.0 0.0 0.0 0.0
37623.2395160236 2036.86742832665 -1511.38870679284 0.0 0.0 0.0 0.0 0.0 0.0
37253.6302409095 1174.44578639355 -3654.54905357042 0.0 0.0 0.0 0.0 0.0 0.0
28292.7659244044 -1961.9069680816 -3664.24635846292 0.0 0.0 0.0 0.0 0.0 0.0
28662.5115887036 -1099.16708471666 -1625.90031998332 0.0 0.0 0.0 0.0 0.0 0.0
35796.7227233822 1958.35197300274 -1564.27604260011 0.0 0.0 0.0 0.0 0.0 0.0
35426.977059083 1095.6120896378 -3602.62208107971 0.0 0.0 0.0 0.0 0.0 0.0
26833.134997465 -1883.18562381892 -3612.22131370635 0.0 0.0 0.0 0.0 0.0 0.0
27203.1942564017 -1019.7140196333 -1678.69904354117 0.0 0.0 0.0 0.0 0.0 0.0
33970.5222019799 1880.56938561447 -1617.02250038506 0.0 0.0 0.0 0.0 0.0 0.0
33600.4629430432 1017.09778142885 -3550.54477055024 0.0 0.0 0.0 0.0 0.0 0.0
25373.6668973355 -1803.79717351883 -3559.82625930165 0.0 0.0 0.0 0.0 0.0 0.0
25744.3385600143 -938.896627268357 -1731.06322820458 0.0 0.0 0.0 0.0 0.0 0.0
32145.009168854 1804.24791937724 -1669.28461775812 0.0 0.0 0.0 0.0 0.0 0.0
31774.3375061752 939.347373126773 -3498.04764885519 0.0 0.0 0.0 0.0 0.0 0.0
23914.2853220011 -1723.20515784542 -3506.61543348755 0.0 0.0 0.0 0.0 0.0 0.0
24286.0460301757 -855.763505438008 -1782.3988846542 0.0 0.0 0.0 0.0 0.0 0.0
30320.8039510925 1730.56131781202 -1720.4387666251 0.0 0.0 0.0 0.0 0.0 0.0
29949.0432429178 863.119665404602 -3444.65531545845 0.0 0.0 0.0 0.0 0.0 0.0
22454.7828164008 -1640.59059705585 -3451.84450039991 0.0 0.0 0.0 0.0 0.0 0.0
22828.3586267444 -768.913706253912 -1831.69306721029 0.0 0.0 0.0 0.0 0.0 0.0
28498.8886429081 1661.31344353051 -1769.43043215301 0.0 0.0 0.0 0.0 0.0 0.0
28125.3128325644 789.636552728576 -3389.58186534263 0.0 0.0 0.0 0.0 0.0 0.0
20994.7088147031 -1554.76362570021 -3394.33794003747 0.0 0.0 0.0 0.0 0.0 0.0
21371.1627639043 -676.371077564114 -1877.31517308759 0.0 0.0 0.0 0.0 0.0 0.0
26680.7424482289 1599.16307286072 -1814.57284822072 0.0 0.0 0.0 0.0 0.0 0.0
26304.2884990277 720.770524724618 -3331.59561517061 0.0 0.0 0.0 0.0 0.0 0.0
19533.1714023585 -1464.08166108374 -3332.33034809836 0.0 0.0 0.0 0.0 0.0 0.0
19914.0093058977 -575.459886158949 -1916.76698833576 0.0 0.0 0.0 0.0 0.0 0.0
24868.4810650667 1547.88515348494 -1853.29400441256 0.0 0.0 0.0 0.0 0.0 0.0
24487.6431615275 659.263378560148 -3268.85736417516 0.0 0.0 0.0 0.0 0.0 0.0
18068.4774955825 -1366.40209057972 -3263.29947227084 0.0 0.0 0.0 0.0 0.0 0.0
18455.7800321086 -462.696172018885 -1946.39434174039 0.0 0.0 0.0 0.0 0.0 0.0
23064.9479889652 1512.66152377679 -1881.84391898605 0.0 0.0 0.0 0.0 0.0 0.0
22677.6454524391 608.955605215959 -3198.7490495165 0.0 0.0 0.0 0.0 0.0 0.0
16597.4567652547 -1259.120429242 -3183.83412504683 0.0 0.0 0.0 0.0 0.0 0.0
16994.0707472395 -333.687804610669 -1961.09817121797 0.0 0.0 0.0 0.0 0.0 0.0
21273.6465856405 1500.41612613262 -1894.99584088717 0.0 0.0 0.0 0.0 0.0 0.0
20877.0326036557 574.983501501289 -3117.73179471602 0.0 0.0 0.0 0.0 0.0 0.0
15114.1785254685 -1139.35589965539 -3089.62185227477 0.0 0.0 0.0 0.0 0.0 0.0
15524.0244823128 -183.0486670188 -1954.13276177934 0.0 0.0 0.0 0.0 0.0 0.0
19498.2362990468 1520.18496872434 -1885.8251023053 0.0 0.0 0.0 0.0 0.0 0.0
19088.3903422025 563.87773608775 -3021.31419280073 0.0 0.0 0.0 0.0 0.0 0.0
13607.4342306545 -1004.44448915805 -2975.7330699475 0.0 0.0 0.0 0.0 0.0 0.0
14036.1383424174 -4.13489504456538 -1917.16073136018 0.0 0.0 0.0 0.0 0.0 0.0
17741.141527473 1583.7236128364 -1845.71004606636 0.0 0.0 0.0 0.0 0.0 0.0
17312.4374157101 583.414018722922 -2904.28238465368 0.0 0.0 0.0 0.0 0.0 0.0
12056.1012289246 -852.722229398626 -2837.50456532335 0.0 0.0 0.0 0.0 0.0 0.0
12511.9783620303 210.991081181329 -1841.00921937931 0.0 0.0 0.0 0.0 0.0 0.0
15999.7120728345 1705.73410009738 -1765.02969719503 0.0 0.0 0.0 0.0 0.0 0.0
15543.8349397288 642.02078951743 -2761.52504313906 0.0 0.0 0.0 0.0 0.0 0.0
10419.8558937927 -685.632833777659 -2672.83857065272 0.0 0.0 0.0 0.0 0.0 0.0
10916.237902266 472.59185266008 -1717.8249981741 0.0 0.0 0.0 0.0 0.0 0.0
14258.7854059412 1905.112211378 -1635.09466342855 0.0 0.0 0.0 0.0 0.0 0.0
13762.4033974678 746.887524940265 -2590.10823590717 0.0 0.0 0.0 0.0 0.0 0.0
8625.64038197946 -509.092798891296 -2487.1034620233 0.0 0.0 0.0 0.0 0.0 0.0
9181.56211115112 788.057902509226 -1548.22670498369 0.0 0.0 0.0 0.0 0.0 0.0
12467.6307607897 2196.37303806863 -1455.57308345509 0.0 0.0 0.0 0.0 0.0 0.0
11911.7090316181 899.222336668111 -2394.44984049469 0.0 0.0 0.0 0.0 0.0 0.0
6542.55009540233 -342.947247097397 -2305.67585565397 0.0 0.0 0.0 0.0 0.0 0.0
7181.70550087395 1148.41536566973 -1355.94697753244 0.0 0.0 0.0 0.0 0.0 0.0
10505.7565742993 2573.00868285203 -1249.4210766205 0.0 0.0 0.0 0.0 0.0 0.0
9866.60116882771 1081.64607008491 -2199.14995474204 0.0 0.0 0.0 0.0 0.0 0.0
3976.1966584068 -225.374138244767 -2200.97821947096 0.0 0.0 0.0 0.0 0.0 0.0
4699.89274634528 1463.25006694502 -1245.35144553299 0.0 0.0 0.0 0.0 0.0 0.0
8044.58645512818 2896.69022785198 -1124.73543087658 0.0 0.0 0.0 0.0 0.0 0.0
7320.8903671897 1208.06602266219 -2080.36220481455 0.0 0.0 0.0 0.0 0.0 0.0
1002.35379648231 -121.409482996249 -2349.95645834239 0.0 0.0 0.0 0.0 0.0 0.0
1437.8934974476 894.849819256078 -1571.10535573375 0.0 0.0 0.0 0.0 0.0 0.0
4163.87235657785 2063.12647316904 -1498.51540557287 0.0 0.0 0.0 0.0 0.0 0.0
3728.33265561256 1046.86717091671 -2277.36650818151 0.0 0.0 0.0 0.0 0.0 0.0
-943.634907904201 -125.805211608978 -3057.81767715845 0.0 0.0 0.0 0.0 0.0 0.0
-2806.022351519 -4471.37591337683 -2901.03898550724 0.0 0.0 0.0 0.0 0.0 0.0
-2257.29693073978 -4236.20787590002 -3211.43689277637 0.0 0.0 0.0 0.0 0.0 0.0
-394.909487124984 109.362825867829 -3368.21558442758 0.0 0.0 0.0 0.0 0.0 0.0
1005.43240602653 -2837.89530300018 -4164.5220734742 0.0 0.0 0.0 0.0 0.0 0.0
-7596.17602672556 -22908.3149794217 -4578.91486852935 0.0 0.0 0.0 0.0 0.0 0.0
-9046.55080941858 -23529.9041720044 -6012.51627398803 0.0 0.0 0.0 0.0 0.0 0.0
-444.942376666488 -3459.4844955829 -5598.12347893288 0.0 0.0 0.0 0.0 0.0 0.0
4268.55875034113 -17823.4286463931 -3023.52444056203 0.0 0.0 0.0 0.0 0.0 0.0
-10154.0630009004 -51476.2127326233 -2465.0781355871 0.0 0.0 0.0 0.0 0.0 0.0
-8199.50093348813 -50638.5432751609 -4868.84842746069 0.0 0.0 0.0 0.0 0.0 0.0
6223.12081775339 -16985.7591889307 -5427.29473243562 0.0 0.0 0.0 0.0 0.0 0.0
88275.8053069541 37832.4879886946 -4853.28429697593 0.0 0.0 0.0 0.0 0.0 0.0
75489.4164879899 7997.58074444489 79.5311374249864 0.0 0.0 0.0 0.0 0.0 0.0
92754.2705083931 15396.8038960463 -2051.53366573571 0.0 0.0 0.0 0.0 0.0 0.0
105540.659327357 45231.711140296 -6984.34910013662 0.0 0.0 0.0 0.0 0.0 0.0
88468.5195678506 13560.0534929566 -6175.85899418958 0.0 0.0 0.0 0.0 0.0 0.0
81896.9710402749 -1773.55973805327 -527.397098590513 0.0 0.0 0.0 0.0 0.0 0.0
101666.587674872 6699.13310534533 -1622.65518651979 0.0 0.0 0.0 0.0 0.0 0.0
108238.136202447 22032.7463363552 -7271.11708211886 0.0 0.0 0.0 0.0 0.0 0.0
85975.4018631357 -25.6608139700693 -5138.05782037455 0.0 0.0 0.0 0.0 0.0 0.0
84555.1148063698 -3339.66394642397 45.468648994411 0.0 0.0 0.0 0.0 0.0 0.0
102697.457449161 4435.62575762947 -191.245860466582 0.0 0.0 0.0 0.0 0.0 0.0
104117.744505927 7749.62889008337 -5374.77232983554 0.0 0.0 0.0 0.0 0.0 0.0
83152.2195706104 -3940.90476174941 -4392.53976732868 0.0 0.0 0.0 0.0 0.0 0.0
83449.3795184604 -3247.53155009937 320.577237443875 0.0 0.0 0.0 0.0 0.0 0.0
99945.2890351644 3822.14395705945 370.103895418878 0.0 0.0 0.0 0.0 0.0 0.0
99648.1290873143 3128.77074540941 -4343.01310935367 0.0 0.0 0.0 0.0 0.0 0.0
80638.058173178 -4452.3835552204 -4258.22099611099 0.0 0.0 0.0 0.0 0.0 0.0
81185.167050148 -3175.79617562374 319.137746165652 0.0 0.0 0.0 0.0 0.0 0.0
97205.9226481163 3690.24193779122 410.322558993985 0.0 0.0 0.0 0.0 0.0 0.0
96658.8137711463 2413.65455819456 -4167.03618328266 0.0 0.0 0.0 0.0 0.0 0.0
78446.3929812307 -4349.55649087403 -4307.4756578827 0.0 0.0 0.0 0.0 0.0 0.0
78989.5290556743 -3082.23898383906 234.180876316353 0.0 0.0 0.0 0.0 0.0 0.0
94885.326925371 3730.24581745952 324.70355539028 0.0 0.0 0.0 0.0 0.0 0.0
94342.1908509274 2462.92831042456 -4216.95297880878 0.0 0.0 0.0 0.0 0.0 0.0
76468.9706088006 -4162.47831821349 -4347.12647501274 0.0 0.0 0.0 0.0 0.0 0.0
76982.7069631053 -2963.76015816911 138.852923670321 0.0 0.0 0.0 0.0 0.0 0.0
92683.6348584961 3765.20893985548 224.475649387776 0.0 0.0 0.0 0.0 0.0 0.0
92169.8985041913 2566.49077981111 -4261.50374929529 0.0 0.0 0.0 0.0 0.0 0.0
74608.6602301674 -3981.20875799964 -4357.06775874567 0.0 0.0 0.0 0.0 0.0 0.0
75089.998458566 -2858.08622506963 56.2343573099563 0.0 0.0 0.0 0.0 0.0 0.0
90536.5558647607 3761.86694901381 136.457395376386 0.0 0.0 0.0 0.0 0.0 0.0
90055.2176363621 2638.7444160838 -4276.84472067924 0.0 0.0 0.0 0.0 0.0 0.0
72805.8891260136 -3836.99022473495 -4339.69676582565 0.0 0.0 0.0 0.0 0.0 0.0
73266.5289571578 -2762.16395206513 -13.9598732974806 0.0 0.0 0.0 0.0 0.0 0.0
88406.6080810064 3726.44138672713 62.8134318932212 0.0 0.0 0.0 0.0 0.0 0.0
87945.9682498622 2651.61511405731 -4262.92346063495 0.0 0.0 0.0 0.0 0.0 0.0
71030.0850231839 -3720.63992376823 -4305.07122322757 0.0 0.0 0.0 0.0 0.0 0.0
71478.4711026635 -2674.4057383159 -75.5278405553031 0.0 0.0 0.0 0.0 0.0 0.0
86281.8729420164 3669.90933569251 -0.796827308708208 0.0 0.0 0.0 0.0 0.0 0.0
85833.4868625368 2623.67515024017 -4230.34020998098 0.0 0.0 0.0 0.0 0.0 0.0
69265.6200598737 -3622.77047094011 -4260.88353078135 0.0 0.0 0.0 0.0 0.0 0.0
69707.6481922063 -2591.37149549737 -132.189330884128 0.0 0.0 0.0 0.0 0.0 0.0
84158.0778918465 3601.66980434846 -58.5179754953612 0.0 0.0 0.0 0.0 0.0 0.0
83716.0497595139 2570.27082890572 -4187.21217539258 0.0 0.0 0.0 0.0 0.0 0.0
67505.4525884418 -3535.16961139642 -4211.94956634495 0.0 0.0 0.0 0.0 0.0 0.0
67944.4255958503 -2510.89926077651 -186.338704712023 0.0 0.0 0.0 0.0 0.0 0.0
82034.0636115656 3527.51703167287 -113.176536810601 0.0 0.0 0.0 0.0 0.0 0.0
81595.090604157 2503.24668105296 -4138.78739844352 0.0 0.0 0.0 0.0 0.0 0.0
65746.5975110609 -3452.82558282911 -4160.86974683154 0.0 0.0 0.0 0.0 0.0 0.0
66184.2427129549 -2431.6534450764 -239.325388201552 0.0 0.0 0.0 0.0 0.0 0.0
79909.6479681599 3450.66309286858 -166.384521219215 0.0 0.0 0.0 0.0 0.0 0.0
79472.0027662659 2429.49095511587 -4087.9288798492 0.0 0.0 0.0 0.0 0.0 0.0
63987.9643396883 -3372.91560504783 -4108.91787363634 0.0 0.0 0.0 0.0 0.0 0.0
64425.0937967813 -2352.94687183072 -291.824742580596 0.0 0.0 0.0 0.0 0.0 0.0
77784.9197554764 3372.69282475291 -218.969833065087 0.0 0.0 0.0 0.0 0.0 0.0
77347.7902983834 2352.72409153579 -4036.06296412084 0.0 0.0 0.0 0.0 0.0 0.0
62229.2323988693 -3294.03032807873 -4056.66051336594 0.0 0.0 0.0 0.0 0.0 0.0
62666.195348411 -2274.4501124814 -344.145359773434 0.0 0.0 0.0 0.0 0.0 0.0
75659.9983859848 3294.32261790736 -271.318201516482 0.0 0.0 0.0 0.0 0.0 0.0
75223.0354364431 2274.74240231003 -3983.83335510899 0.0 0.0 0.0 0.0 0.0 0.0
60470.3602880233 -3215.522281219 -4004.32356013076 0.0 0.0 0.0 0.0 0.0 0.0
60907.288942323 -2196.02208785307 -396.414019472068 0.0 0.0 0.0 0.0 0.0 0.0
73534.9723346284 3215.84222313495 -323.592577088788 0.0 0.0 0.0 0.0 0.0 0.0
73098.0436803287 2196.34202976903 -3931.50211774748 0.0 0.0 0.0 0.0 0.0 0.0
58711.3828833989 -3137.12468453481 -3951.98373284901 0.0 0.0 0.0 0.0 0.0 0.0
59148.3181041501 -2117.60916944876 -448.676049494321 0.0 0.0 0.0 0.0 0.0 0.0
71409.8949958915 3137.35235558328 -375.85351270246 0.0 0.0 0.0 0.0 0.0 0.0
70972.9597751403 2117.83684049723 -3879.16119605715 0.0 0.0 0.0 0.0 0.0 0.0
56952.3413813828 -3058.74205063476 -3899.65963856525 0.0 0.0 0.0 0.0 0.0 0.0
57389.2900534012 -2039.19514925838 -500.944065231661 0.0 0.0 0.0 0.0 0.0 0.0
69284.7945600688 3058.878210742 -428.11928656192 0.0 0.0 0.0 0.0 0.0 0.0
68847.8458880503 2039.33130936563 -3826.83485989551 0.0 0.0 0.0 0.0 0.0 0.0
55193.2650679779 -2980.3487144398 -3847.35112388739 0.0 0.0 0.0 0.0 0.0 0.0
55630.2239404947 -1960.7780119005 -553.219711525016 0.0 0.0 0.0 0.0 0.0 0.0
67159.683883763 2980.41910664306 -480.393232772209 0.0 0.0 0.0 0.0 0.0 0.0
66722.7250112462 1960.84840410376 -3774.52464513458 0.0 0.0 0.0 0.0 0.0 0.0
53434.1708197379 -2901.94363508202 -3795.0544665513 0.0 0.0 0.0 0.0 0.0 0.0
53871.1350494607 -1882.36043239548 -605.502474139665 0.0 0.0 0.0 0.0 0.0 0.0
65034.5670229014 2901.96755622196 -532.675102519198 0.0 0.0 0.0 0.0 0.0 0.0
64597.6027931786 1882.38435353542 -3722.22709493083 0.0 0.0 0.0 0.0 0.0 0.0
51675.0666836483 -2823.53258917221 -3742.76738000535 0.0 0.0 0.0 0.0 0.0 0.0
52112.0321811324 -1803.94642837602 -657.792961498662 0.0 0.0 0.0 0.0 0.0 0.0
62909.4426459058 2823.51519938401 -584.965378584648 0.0 0.0 0.0 0.0 0.0 0.0
62472.4771484217 1803.92903858782 -3669.93979709134 0.0 0.0 0.0 0.0 0.0 0.0
49915.9551789694 -2745.12228644586 -3690.49027679433 0.0 0.0 0.0 0.0 0.0 0.0
50352.9188002333 -1725.54050349681 -710.09414707211 0.0 0.0 0.0 0.0 0.0 0.0
60784.3052542611 2745.05369108652 -637.266876861463 0.0 0.0 0.0 0.0 0.0 0.0
60347.3416329972 1725.47190813747 -3617.66300658368 0.0 0.0 0.0 0.0 0.0 0.0
48156.8354024924 -2666.7191025286 -3638.22646216602 0.0 0.0 0.0 0.0 0.0 0.0
48593.7946393599 -1647.14754983791 -762.412062659598 0.0 0.0 0.0 0.0 0.0 0.0
58659.1450376324 2666.57404942173 -689.585523181691 0.0 0.0 0.0 0.0 0.0 0.0
58222.1858007649 1647.00249673103 -3565.39992268812 0.0 0.0 0.0 0.0 0.0 0.0
46397.7041459532 -2588.32918986933 -3585.98217825365 0.0 0.0 0.0 0.0 0.0 0.0
46834.6569321028 -1568.77268885375 -814.756454084849 0.0 0.0 0.0 0.0 0.0 0.0
56533.9469666936 2588.06589739945 -741.930989726593 0.0 0.0 0.0 0.0 0.0 0.0
56096.994180544 1568.50939638387 -3513.1567138954 0.0 0.0 0.0 0.0 0.0 0.0
44638.556481277 -2509.95859635053 -3533.76663865402 0.0 0.0 0.0 0.0 0.0 0.0
45075.5013616038 -1490.42054225449 -867.141417379809 0.0 0.0 0.0 0.0 0.0 0.0
54408.6896360636 2509.51728965682 -794.317270658664 0.0 0.0 0.0 0.0 0.0 0.0
53971.7447557367 1489.97923556079 -3460.94249193288 0.0 0.0 0.0 0.0 0.0 0.0
42879.3862921699 -2431.61271486906 -3481.5918050358 0.0 0.0 0.0 0.0 0.0 0.0
43316.3231299342 -1412.09342675223 -919.585703076204 0.0 0.0 0.0 0.0 0.0 0.0
52283.3444867928 2430.91572618716 -846.762896782145 0.0 0.0 0.0 0.0 0.0 0.0
51846.4076490284 1411.39643807033 -3408.76899874174 0.0 0.0 0.0 0.0 0.0 0.0
41120.1872671862 -2353.29451078711 -3429.47136435533 0.0 0.0 0.0 0.0 0.0 0.0
41557.1187161186 -1333.78779661148 -972.112024482706 0.0 0.0 0.0 0.0 0.0 0.0
50157.8764056728 2352.25121319746 -899.290116327304 0.0 0.0 0.0 0.0 0.0 0.0
49720.9449567404 1332.74449902183 -3356.64945619993 0.0 0.0 0.0 0.0 0.0 0.0
39360.9550063317 -2275.00081509159 -3377.41801554582 0.0 0.0 0.0 0.0 0.0 0.0
39797.8890756121 -1255.48798677053 -1024.74421594082 0.0 0.0 0.0 0.0 0.0 0.0
48032.2473742296 2273.52271263696 -951.921871060746 0.0 0.0 0.0 0.0 0.0 0.0
47595.3133049491 1254.00988431591 -3304.59567066574 0.0 0.0 0.0 0.0 0.0 0.0
37601.6911594075 -2196.71566514393 -3325.43768557164 0.0 0.0 0.0 0.0 0.0 0.0
38038.6453060718 -1177.15598959387 -1077.50037235322 0.0 0.0 0.0 0.0 0.0 0.0
45906.4259023363 2194.74998023375 -1004.6746812425 0.0 0.0 0.0 0.0 0.0 0.0
45469.4717556719 1175.19030468369 -3252.61199446092 0.0 0.0 0.0 0.0 0.0 0.0
35842.4109188545 -2118.39929840128 -3273.51862465933 0.0 0.0 0.0 0.0 0.0 0.0
36279.4181770894 -1098.71569585332 -1130.37909694661 0.0 0.0 0.0 0.0 0.0 0.0
43780.4065240839 2115.99359571576 -1057.54455390747 0.0 0.0 0.0 0.0 0.0 0.0
43343.3992658491 1096.30999316781 -3200.68408162019 0.0 0.0 0.0 0.0 0.0 0.0
34083.1557201487 -2039.97103454218 -3221.61247123348 0.0 0.0 0.0 0.0 0.0 0.0
34520.2733661235 -1020.02986060095 -1183.33465230747 0.0 0.0 0.0 0.0 0.0 0.0
41654.2457323645 2037.38686778805 -1110.48171131167 0.0 0.0 0.0 0.0 0.0 0.0
41217.1280863897 1017.44569384682 -3148.75953023767 0.0 0.0 0.0 0.0 0.0 0.0
32324.0135857844 -1961.28405217484 -3169.6033802576 0.0 0.0 0.0 0.0 0.0 0.0
32761.3346710021 -940.868186666874 -1236.2351724505 0.0 0.0 0.0 0.0 0.0 0.0
39528.123398327 1959.18412504377 -1163.34832491422 0.0 0.0 0.0 0.0 0.0 0.0
39090.8023131093 938.768259535806 -3096.71653272131 0.0 0.0 0.0 0.0 0.0 0.0
30565.1499751975 -1882.09019915457 -3117.26032092063 0.0 0.0 0.0 0.0 0.0 0.0
31002.8176643341 -860.865591169175 -1288.79627692232 0.0 0.0 0.0 0.0 0.0 0.0
37402.4418183282 1881.83047482829 -1215.85166206622 0.0 0.0 0.0 0.0 0.0 0.0
36964.7741291916 860.605866842896 -3044.31570606453 0.0 0.0 0.0 0.0 0.0 0.0
28806.8517383979 -1801.99384514182 -3064.16697462265 0.0 0.0 0.0 0.0 0.0 0.0
29245.0757600551 -779.47112794177 -1340.48072336207 0.0 0.0 0.0 0.0 0.0 0.0
35277.9776394671 1806.05824894909 -1267.44338641921 0.0 0.0 0.0 0.0 0.0 0.0
34839.75361781 783.535531749043 -2991.12963767979 0.0 0.0 0.0 0.0 0.0 0.0
27049.5846415271 -1720.39589302521 -3009.6238220796 0.0 0.0 0.0 0.0 0.0 0.0
27488.6584669665 -695.890300333329 -1390.35365195021 0.0 0.0 0.0 0.0 0.0 0.0
33156.1040624194 1733.01495486077 -1317.17468104364 0.0 0.0 0.0 0.0 0.0 0.0
32717.03023698 708.509362168888 -2936.44485117304 0.0 0.0 0.0 0.0 0.0 0.0
25294.058323086 -1636.43321913923 -2952.51883496781 0.0 0.0 0.0 0.0 0.0 0.0
25734.3758078363 -609.025754721864 -1436.88326920517 0.0 0.0 0.0 0.0 0.0 0.0
31039.1002880056 1664.42759392209 -1363.49702174679 0.0 0.0 0.0 0.0 0.0 0.0
30598.7828032553 637.020129504728 -2879.13258750942 0.0 0.0 0.0 0.0 0.0 0.0
23541.276521135 -1548.92544902243 -2891.16778515961 0.0 0.0 0.0 0.0 0.0 0.0
23983.3489032594 -517.423224065544 -1477.67942327318 0.0 0.0 0.0 0.0 0.0 0.0
28930.5581698619 1602.80931876409 -1404.00069291912 0.0 0.0 0.0 0.0 0.0 0.0
28488.4857877375 571.307093807201 -2817.48905480554 0.0 0.0 0.0 0.0 0.0 0.0
21792.5132906318 -1456.35277233453 -2823.13446837712 0.0 0.0 0.0 0.0 0.0 0.0
22236.9981259083 -419.221490022697 -1509.16839108813 0.0 0.0 0.0 0.0 0.0 0.0
26835.8793964197 1551.72762591078 -1435.08758520872 0.0 0.0 0.0 0.0 0.0 0.0
26391.3945611432 514.596343598952 -2749.0536624977 0.0 0.0 0.0 0.0 0.0 0.0
20049.0827405987 -1356.8995122982 -2745.05626681811 0.0 0.0 0.0 0.0 0.0 0.0
20496.8528820582 -312.102515559378 -1526.21257900695 0.0 0.0 0.0 0.0 0.0 0.0
24762.8057893973 1516.16301615736 -1451.58422209703 0.0 0.0 0.0 0.0 0.0 0.0
24315.0356479378 471.366019418543 -2670.42790990819 0.0 0.0 0.0 0.0 0.0 0.0
18311.5966386202 -1248.64090560425 -2652.53093092051 0.0 0.0 0.0 0.0 0.0 0.0
18763.9561808284 -193.135307118542 -1521.69875720907 0.0 0.0 0.0 0.0 0.0 0.0
22721.8687888184 1503.11295344861 -1446.30550017438 0.0 0.0 0.0 0.0 0.0 0.0
22269.5092466102 447.607354962905 -2577.13767388581 0.0 0.0 0.0 0.0 0.0 0.0
16578.1572974917 -1129.90625711996 -2540.15603955745 0.0 0.0 0.0 0.0 0.0 0.0
17037.3031010804 -58.5660487463392 -1486.15762019949 0.0 0.0 0.0 0.0 0.0 0.0
20726.2975688333 1522.43158029061 -1409.63331960137 0.0 0.0 0.0 0.0 0.0 0.0
20267.1517652446 451.091371916988 -2463.63173895933 0.0 0.0 0.0 0.0 0.0 0.0
14839.9965133362 -1000.26887206531 -2401.97261727219 0.0 0.0 0.0 0.0 0.0 0.0
15310.4684591725 97.4990015528701 -1407.50668123229 0.0 0.0 0.0 0.0 0.0 0.0
18791.0992353122 1589.19790561271 -1329.09469025956 0.0 0.0 0.0 0.0 0.0 0.0
18320.6272894758 491.430031994529 -2323.56062629946 0.0 0.0 0.0 0.0 0.0 0.0
13073.1597838059 -861.347573604249 -2232.58521994443 0.0 0.0 0.0 0.0 0.0 0.0
13563.5530537977 282.903389709914 -1271.53588729765 0.0 0.0 0.0 0.0 0.0 0.0
16927.2257180614 1724.47738868008 -1189.80367563236 0.0 0.0 0.0 0.0 0.0 0.0
16436.8324480696 580.226425365918 -2150.85300827913 0.0 0.0 0.0 0.0 0.0 0.0
11216.4766794746 -722.986484999979 -2030.89106436379 0.0 0.0 0.0 0.0 0.0 0.0
11748.1712769157 517.634242362653 -1063.1693996797 0.0 0.0 0.0 0.0 0.0 0.0
15135.19710331 1969.21673938878 -974.553633439516 0.0 0.0 0.0 0.0 0.0 0.0
14603.5025058689 728.596012026153 -1942.2752981236 0.0 0.0 0.0 0.0 0.0 0.0
9147.14168495372 -597.092725621072 -1806.74627096665 0.0 0.0 0.0 0.0 0.0 0.0
9750.7862528851 811.411266218822 -779.846033050266 0.0 0.0 0.0 0.0 0.0 0.0
13344.9370855925 2351.7616230934 -679.238605061702 0.0 0.0 0.0 0.0 0.0 0.0
12741.2925176611 943.257631253511 -1706.13884297809 0.0 0.0 0.0 0.0 0.0 0.0
6565.92004577546 -553.531393971023 -1610.78716124432 0.0 0.0 0.0 0.0 0.0 0.0
7322.05107322765 1210.77433675074 -440.278564172255 0.0 0.0 0.0 0.0 0.0 0.0
11418.8311629799 2966.53723235883 -314.256726263558 0.0 0.0 0.0 0.0 0.0 0.0
10662.7001355277 1202.23150163707 -1484.76532333562 0.0 0.0 0.0 0.0 0.0 0.0
3005.79727371203 -639.048720184524 -1592.90964147719 0.0 0.0 0.0 0.0 0.0 0.0
3997.75742265061 1675.52496067215 -305.544638002492 0.0 0.0 0.0 0.0 0.0 0.0
8503.53493481205 3606.5724658842 -140.217946512729 0.0 0.0 0.0 0.0 0.0 0.0
7511.57478587347 1291.99878502752 -1427.58294998743 0.0 0.0 0.0 0.0 0.0 0.0
-561.024421052223 -278.23868662906 -2175.2448168572 0.0 0.0 0.0 0.0 0.0 0.0
-926.217114741723 -1130.35497190456 -1413.73977646438 0.0 0.0 0.0 0.0 0.0 0.0
1739.05052663314 11.9025886846647 -1474.60522541263 0.0 0.0 0.0 0.0 0.0 0.0
2104.24322032264 864.018873960165 -2236.11026580545 0.0 0.0 0.0 0.0 0.0 0.0
886.137439331567 -353.631591587437 -3800.42636262089 0.0 0.0 0.0 0.0 0.0 0.0
-8079.00704752144 -21272.3020609111 -4214.4962054328 0.0 0.0 0.0 0.0 0.0 0.0
-9528.25149736312 -21893.406825129 -5708.68695324164 0.0 0.0 0.0 0.0 0.0 0.0
-563.107010510117 -974.736355805301 -5294.61711042973 0.0 0.0 0.0 0.0 0.0 0.0
7190.66457965054 -14728.1570778374 -3629.27466388039 0.0 0.0 0.0 0.0 0.0 0.0
-14974.633444185 -66447.1858001202 -2988.34936288393 0.0 0.0 0.0 0.0 0.0 0.0
-12731.3948906973 -65485.7978486255 -6682.56570018984 0.0 0.0 0.0 0.0 0.0 0.0
9433.90313313816 -13766.7691263427 -7323.49100118631 0.0 0.0 0.0 0.0 0.0 0.0
105540.659327357 45231.711140296 -6984.34910013662 0.0 0.0 0.0 0.0 0.0 0.0
88168.3695803275 4696.36839722654 -1340.98961334506 0.0 0.0 0.0 0.0 0.0 0.0
107920.127784098 13161.4076274139 -4236.37123785002 0.0 0.0 0.0 0.0 0.0 0.0
125292.417531128 53696.7503704833 -9879.73072464158 0.0 0.0 0.0 0.0 0.0 0.0
103652.235274382 11332.3108375355 -6560.57302972821 0.0 0.0 0.0 0.0 0.0 0.0
97254.7723368407 -3595.10268339351 -486.503927595143 0.0 0.0 0.0 0.0 0.0 0.0
118514.014194306 5516.00096980609 -1552.74775051864 0.0 0.0 0.0 0.0 0.0 0.0
124911.477131847 20443.4144907351 -7626.8168526517 0.0 0.0 0.0 0.0 0.0 0.0
99705.9291678962 -2544.60689865547 -4238.62107091089 0.0 0.0 0.0 0.0 0.0 0.0
99490.9768376102 -3046.16233598933 641.986728978385 0.0 0.0 0.0 0.0 0.0 0.0
116573.104137223 4274.74936384459 606.161340597395 0.0 0.0 0.0 0.0 0.0 0.0
116788.056467509 4776.30480117845 -4274.44645929188 0.0 0.0 0.0 0.0 0.0 0.0
96441.6484757634 -4353.01734820938 -3509.78051990871 0.0 0.0 0.0 0.0 0.0 0.0
97067.9199915183 -2891.71714478137 910.805526453545 0.0 0.0 0.0 0.0 0.0 0.0
112539.971153786 3739.16192476201 1015.18411241269 0.0 0.0 0.0 0.0 0.0 0.0
111913.699638031 2277.861721334 -3405.40193394956 0.0 0.0 0.0 0.0 0.0 0.0
93781.4447275002 -4300.20654364626 -3626.33455224799 0.0 0.0 0.0 0.0 0.0 0.0
94324.7579168818 -3032.47576842254 886.143713536334 0.0 0.0 0.0 0.0 0.0 0.0
110118.431847127 3736.24163025394 976.6959117666 0.0 0.0 0.0 0.0 0.0 0.0
109575.118657745 2468.51085503022 -3535.78235401773 0.0 0.0 0.0 0.0 0.0 0.0
91461.0261196929 -4259.78939578921 -3741.13182426643 0.0 0.0 0.0 0.0 0.0 0.0
92023.3505759363 -2947.69899788812 772.04111097573 0.0 0.0 0.0 0.0 0.0 0.0
107819.455849284 3822.06040497512 865.76185368295 0.0 0.0 0.0 0.0 0.0 0.0
107257.13139304 2509.97000707403 -3647.41108155921 0.0 0.0 0.0 0.0 0.0 0.0
89307.9221547566 -4111.45403553653 -3814.16619370984 0.0 0.0 0.0 0.0 0.0 0.0
89843.3970073602 -2862.01271279476 665.968252554921 0.0 0.0 0.0 0.0 0.0 0.0
105523.867569287 3858.18895660237 755.214061322191 0.0 0.0 0.0 0.0 0.0 0.0
104988.392716683 2608.74763386061 -3724.92038494257 0.0 0.0 0.0 0.0 0.0 0.0
87214.9797852263 -3988.47723656645 -3835.3521175121 0.0 0.0 0.0 0.0 0.0 0.0
87738.1926663287 -2767.64718066091 577.475054894805 0.0 0.0 0.0 0.0 0.0 0.0
103183.087769753 3851.59357794944 664.6772017452 0.0 0.0 0.0 0.0 0.0 0.0
102659.87488865 2630.7635220439 -3748.1499706617 0.0 0.0 0.0 0.0 0.0 0.0
85147.6050514302 -3877.89901561741 -3821.90580111653 0.0 0.0 0.0 0.0 0.0 0.0
85661.4957570787 -2678.82070243761 504.875847124779 0.0 0.0 0.0 0.0 0.0 0.0
100805.231525923 3811.35176992436 590.524298066194 0.0 0.0 0.0 0.0 0.0 0.0
100291.340820275 2612.27345674456 -3736.25735017512 0.0 0.0 0.0 0.0 0.0 0.0
83088.3745386091 -3781.58693892456 -3788.27779474942 0.0 0.0 0.0 0.0 0.0 0.0
83597.3186482412 -2594.05068311633 442.254014368499 0.0 0.0 0.0 0.0 0.0 0.0
98404.1799801539 3751.74703056055 527.078032640516 0.0 0.0 0.0 0.0 0.0 0.0
97895.2358705218 2564.21077475232 -3703.45377647741 0.0 0.0 0.0 0.0 0.0 0.0
81031.4954657387 -3693.68918990312 -3744.16133371537 0.0 0.0 0.0 0.0 0.0 0.0
81537.7842612317 -2512.34866708607 385.201439616879 0.0 0.0 0.0 0.0 0.0 0.0
95990.5539678946 3681.69549291232 469.582905532382 0.0 0.0 0.0 0.0 0.0 0.0
95484.2651724016 2500.35497009526 -3659.77986779987 0.0 0.0 0.0 0.0 0.0 0.0
78974.7969735422 -3610.77179038156 -3695.06798333128 0.0 0.0 0.0 0.0 0.0 0.0
79479.8312277974 -2432.35853045275 330.924423698838 0.0 0.0 0.0 0.0 0.0 0.0
93570.8046524029 3606.63008009244 415.096799408039 0.0 0.0 0.0 0.0 0.0 0.0
93065.7703981477 2428.21682016362 -3610.89560762208 0.0 0.0 0.0 0.0 0.0 0.0
76917.7703824978 -3530.38460700975 -3643.82791933976 0.0 0.0 0.0 0.0 0.0 0.0
77422.2522865479 -2353.26016422609 277.912131426694 0.0 0.0 0.0 0.0 0.0 0.0
91148.3424642305 3529.3499119236 361.992448768385 0.0 0.0 0.0 0.0 0.0 0.0
90643.8605601804 2352.22546913994 -3559.74760199807 0.0 0.0 0.0 0.0 0.0 0.0
74860.3946167714 -3451.19916555887 -3591.76631147493 0.0 0.0 0.0 0.0 0.0 0.0
75364.6620253099 -2274.57521230229 225.418035213049 0.0 0.0 0.0 0.0 0.0 0.0
88724.8072387179 3451.20130772967 309.462603302805 0.0 0.0 0.0 0.0 0.0 0.0
88220.5398301793 2274.57735447309 -3507.72174338517 0.0 0.0 0.0 0.0 0.0 0.0
72802.7777062766 -3372.52563474517 -3539.44548683085 0.0 0.0 0.0 0.0 0.0 0.0
73306.9749751856 -2196.06534062406 173.108131104306 0.0 0.0 0.0 0.0 0.0 0.0
86300.9126379587 3372.76508627868 257.141009255813 0.0 0.0 0.0 0.0 0.0 0.0
85796.7153690496 2196.30479215757 -3455.41260867935 0.0 0.0 0.0 0.0 0.0 0.0
70745.0202695295 -3294.04592876239 -3487.07578512669 0.0 0.0 0.0 0.0 0.0 0.0
71249.2026364866 -2117.62040586257 120.847973445684 0.0 0.0 0.0 0.0 0.0 0.0
83876.9357914899 3294.26523199599 204.878367938528 0.0 0.0 0.0 0.0 0.0 0.0
83372.7534245328 2117.83970909617 -3403.04539063384 0.0 0.0 0.0 0.0 0.0 0.0
68687.1900769986 -3215.62578850029 -3434.72064552268 0.0 0.0 0.0 0.0 0.0 0.0
69191.374666858 -2039.19507882826 68.5912643377379 0.0 0.0 0.0 0.0 0.0 0.0
81452.9663513694 3215.77278596236 152.622029314311 0.0 0.0 0.0 0.0 0.0 0.0
80948.78176151 2039.34207629033 -3350.68988054611 0.0 0.0 0.0 0.0 0.0 0.0
66629.3255590168 -3137.21612504592 -3382.39008285531 0.0 0.0 0.0 0.0 0.0 0.0
67133.515377193 -1960.77321596813 16.3262831266186 0.0 0.0 0.0 0.0 0.0 0.0
79029.0226581297 3137.30133300477 100.357919489318 0.0 0.0 0.0 0.0 0.0 0.0
78524.8328399536 1960.85842392698 -3298.35844649261 0.0 0.0 0.0 0.0 0.0 0.0
64571.4458283704 -3058.80302260637 -3330.07907544604 0.0 0.0 0.0 0.0 0.0 0.0
65075.6396796062 -1882.35070305635 -35.9474590290347 0.0 0.0 0.0 0.0 0.0 0.0
76605.1003370657 3058.84672156916 48.0848495102523 0.0 0.0 0.0 0.0 0.0 0.0
76100.9064858299 1882.39440201913 -3246.04676690675 0.0 0.0 0.0 0.0 0.0 0.0
62513.5585890217 -2980.38545616398 -3277.78132118765 0.0 0.0 0.0 0.0 0.0 0.0
63017.7547418133 -1803.92776631694 -88.2284303184753 0.0 0.0 0.0 0.0 0.0 0.0
74181.1898598554 2980.40156998683 -4.19573818654352 0.0 0.0 0.0 0.0 0.0 0.0
73676.9937070638 1803.94388013978 -3193.74862905572 0.0 0.0 0.0 0.0 0.0 0.0
60455.6648673336 -2901.96628395109 -3225.49312489061 0.0 0.0 0.0 0.0 0.0 0.0
60959.8621686803 -1725.50591414214 -140.516319832627 0.0 0.0 0.0 0.0 0.0 0.0
71757.2809863832 2901.95929344484 -56.4834362748456 0.0 0.0 0.0 0.0 0.0 0.0
71253.0836850365 1725.4989236359 -3141.46024133283 0.0 0.0 0.0 0.0 0.0 0.0
58397.7611557717 -2823.54920538869 -3173.21394783166 0.0 0.0 0.0 0.0 0.0 0.0
58901.9593098117 -1647.08684596205 -192.813133948093 0.0 0.0 0.0 0.0 0.0 0.0
69333.3621584042 2823.51437486331 -108.780108274762 0.0 0.0 0.0 0.0 0.0 0.0
68829.1640043642 1647.05201543667 -3089.18092215833 0.0 0.0 0.0 0.0 0.0 0.0
56339.8398563156 -2745.13804031753 -3120.94617977475 0.0 0.0 0.0 0.0 0.0 0.0
56844.0395688156 -1568.67204448416 -245.123752194816 0.0 0.0 0.0 0.0 0.0 0.0
66909.4180653453 2745.06159688574 -161.090466778147 0.0 0.0 0.0 0.0 0.0 0.0
66405.2183528453 1568.59560105237 -3036.91289435808 0.0 0.0 0.0 0.0 0.0 0.0
54281.8887117272 -2666.73669752202 -3068.69494290852 0.0 0.0 0.0 0.0 0.0 0.0
54786.0919709686 -1490.2624259588 -297.456503739895 0.0 0.0 0.0 0.0 0.0 0.0
64485.4265080588 2666.59523279414 -213.422627199666 0.0 0.0 0.0 0.0 0.0 0.0
63981.2232488174 1490.12096123092 -2984.66106636829 0.0 0.0 0.0 0.0 0.0 0.0
52223.8897600117 -2588.34908779746 -3016.46800594618 0.0 0.0 0.0 0.0 0.0 0.0
52728.1003518246 -1411.85770690081 -349.823828574163 0.0 0.0 0.0 0.0 0.0 0.0
62061.3549726266 2588.10855915721 -265.788729938688 0.0 0.0 0.0 0.0 0.0 0.0
61557.1443808138 1411.61717826056 -2932.4329073107 0.0 0.0 0.0 0.0 0.0 0.0
50165.8183647894 -2509.9785584873 -2964.27555665724 0.0 0.0 0.0 0.0 0.0 0.0
50670.042650517 -1333.45522512297 -402.242788850081 0.0 0.0 0.0 0.0 0.0 0.0
59637.1573378421 2509.59392658776 -318.205407895485 0.0 0.0 0.0 0.0 0.0 0.0
59132.9330521145 1333.07059322343 -2880.23817570264 0.0 0.0 0.0 0.0 0.0 0.0
48107.6431204646 -2431.6264522883 -2912.12934826787 0.0 0.0 0.0 0.0 0.0 0.0
48611.8910560414 -1255.04793594236 -454.734899888027 0.0 0.0 0.0 0.0 0.0 0.0
57212.7716253709 2431.0437366274 -370.693577291888 0.0 0.0 0.0 0.0 0.0 0.0
56708.523689794 1254.46522028147 -2828.08802567173 0.0 0.0 0.0 0.0 0.0 0.0
46049.3279553178 -2353.28926482391 -2860.04045422646 0.0 0.0 0.0 0.0 0.0 0.0
46553.6142458262 -1176.62125363772 -507.324339572141 0.0 0.0 0.0 0.0 0.0 0.0
54788.1206471163 2352.45291834377 -423.276624487413 0.0 0.0 0.0 0.0 0.0 0.0
54283.8343566079 1175.78490715757 -2775.99273914174 0.0 0.0 0.0 0.0 0.0 0.0
43990.8386272685 -2274.95366159099 -2808.01446297231 0.0 0.0 0.0 0.0 0.0 0.0
44495.1837505063 -1098.14837403606 -560.032983855951 0.0 0.0 0.0 0.0 0.0 0.0
52363.1189274136 2273.82384463848 -475.975463316313 0.0 0.0 0.0 0.0 0.0 0.0
51858.7738041758 1097.01855708355 -2723.95694243268 0.0 0.0 0.0 0.0 0.0 0.0
41932.1571140191 -2196.58836110201 -2756.04238423364 0.0 0.0 0.0 0.0 0.0 0.0
42436.587660507 -1019.58375263039 -612.869837947573 0.0 0.0 0.0 0.0 0.0 0.0
49937.6915725082 2195.17506679871 -528.7980801996 0.0 0.0 0.0 0.0 0.0 0.0
49433.2610260204 1018.17045832709 -2671.97062648567 0.0 0.0 0.0 0.0 0.0 0.0
39873.3092228128 -2118.13165449932 -2704.08481427778 0.0 0.0 0.0 0.0 0.0 0.0
40377.8565318408 -940.854600100687 -665.811237602941 0.0 0.0 0.0 0.0 0.0 0.0
47511.8140502027 2116.55576491157 -581.720019431609 0.0 0.0 0.0 0.0 0.0 0.0
47007.2667411747 939.278710512932 -2619.99359610645 0.0 0.0 0.0 0.0 0.0 0.0
37814.4131125855 -2039.47320835293 -2652.04605901258 0.0 0.0 0.0 0.0 0.0 0.0
38319.1084724712 -861.850701952932 -718.766673958913 0.0 0.0 0.0 0.0 0.0 0.0
45085.5863201591 2038.06837562757 -634.650780644627 0.0 0.0 0.0 0.0 0.0 0.0
44580.8909602734 860.445869227569 -2567.9301656983 0.0 0.0 0.0 0.0 0.0 0.0
35755.7592033359 -1960.4289601538 -2599.73405510923 0.0 0.0 0.0 0.0 0.0 0.0
36260.6228933591 -782.413683432922 -771.523309699258 0.0 0.0 0.0 0.0 0.0 0.0
42659.360502294 1959.90243468203 -687.379361362052 0.0 0.0 0.0 0.0 0.0 0.0
42154.4968122708 781.887157961151 -2515.59010677202 0.0 0.0 0.0 0.0 0.0 0.0
33697.9346928409 -1880.70862651217 -2546.80128531282 0.0 0.0 0.0 0.0 0.0 0.0
34202.9549029082 -702.328136355041 -823.660370093361 0.0 0.0 0.0 0.0 0.0 0.0
40233.9481061763 1882.38323647415 -739.490335082138 0.0 0.0 0.0 0.0 0.0 0.0
39728.927896109 704.002746317023 -2462.6312503016 0.0 0.0 0.0 0.0 0.0 0.0
31642.0075004211 -1799.87702313524 -2492.66183484719 0.0 0.0 0.0 0.0 0.0 0.0
32147.1039444347 -621.318653770002 -874.422898070347 0.0 0.0 0.0 0.0 0.0 0.0
37810.9402231537 1806.03975139526 -790.240157401401 0.0 0.0 0.0 0.0 0.0 0.0
37305.84377914 627.481382030019 -2408.47909417824 0.0 0.0 0.0 0.0 0.0 0.0
29589.7826852706 -1717.31347912605 -2436.38080453613 0.0 0.0 0.0 0.0 0.0 0.0
30094.7489978156 -539.058749854383 -922.54319256114 0.0 0.0 0.0 0.0 0.0 0.0
35393.1806397281 1731.6976681081 -838.382140470307 0.0 0.0 0.0 0.0 0.0 0.0
34888.2143271831 553.442938836437 -2352.2197524453 0.0 0.0 0.0 0.0 0.0 0.0
27544.1344975476 -1632.17924996927 -2376.53522561989 0.0 0.0 0.0 0.0 0.0 0.0
28048.55542196 -455.197093007017 -965.997838643629 0.0 0.0 0.0 0.0 0.0 0.0
32985.4362763769 1660.60898745738 -881.927684574897 0.0 0.0 0.0 0.0 0.0 0.0
32481.0153519645 483.626830495126 -2292.46507155116 0.0 0.0 0.0 0.0 0.0 0.0
25509.3918132413 -1543.41006817216 -2311.05080822221 0.0 0.0 0.0 0.0 0.0 0.0
26012.5356951532 -369.407677044323 -1001.68796046053 0.0 0.0 0.0 0.0 0.0 0.0
30595.3056623191 1594.63659459821 -917.830646808538 0.0 0.0 0.0 0.0 0.0 0.0
30092.1617804072 420.634203470376 -2227.19349457023 0.0 0.0 0.0 0.0 0.0 0.0
23491.6919466713 -1449.76928353656 -2237.02828516 0.0 0.0 0.0 0.0 0.0 0.0
23992.4043820909 -281.440267557547 -1025.02872530672 0.0 0.0 0.0 0.0 0.0 0.0
28234.4028415774 1536.55907222238 -941.576652736787 0.0 0.0 0.0 0.0 0.0 0.0
27733.6904061578 368.230056243365 -2153.57621259007 0.0 0.0 0.0 0.0 0.0 0.0
21499.1078393038 -1349.99592875201 -2150.5821770955 0.0 0.0 0.0 0.0 0.0 0.0
21995.7366261944 -191.195426007496 -1029.42478883171 0.0 0.0 0.0 0.0 0.0 0.0
25919.7874851176 1490.54065638818 -946.653324349964 0.0 0.0 0.0 0.0 0.0 0.0
25423.1586982271 331.74015364367 -2067.81071261375 0.0 0.0 0.0 0.0 0.0 0.0
19541.0196026206 -1243.21700753912 -2046.75102761667 0.0 0.0 0.0 0.0 0.0 0.0
20031.6291257775 -98.4614535063447 -1005.5866030884 0.0 0.0 0.0 0.0 0.0 0.0
23675.7046116264 1463.28518328606 -923.818349228918 0.0 0.0 0.0 0.0 0.0 0.0
23185.0950884695 318.529629253282 -1964.98277375719 0.0 0.0 0.0 0.0 0.0 0.0
17625.95884642 -1129.46300180242 -1919.51390978649 0.0 0.0 0.0 0.0 0.0 0.0
18108.6527286874 -3.17727651163295 -940.602289546485 0.0 0.0 0.0 0.0 0.0 0.0
21534.8433995275 1465.19015384837 -860.153309168571 0.0 0.0 0.0 0.0 0.0 0.0
21052.14951726 338.904428557586 -1839.06492940858 0.0 0.0 0.0 0.0 0.0 0.0
15754.3859414449 -1012.14875675843 -1762.36060756605 0.0 0.0 0.0 0.0 0.0 0.0
16230.5372932606 98.8710641449161 -816.531326509179 0.0 0.0 0.0 0.0 0.0 0.0
19540.9397769597 1517.61498573023 -737.172767873226 0.0 0.0 0.0 0.0 0.0 0.0
19064.788425144 406.595164826884 -1683.0020489301 0.0 0.0 0.0 0.0 0.0 0.0
13906.8140810681 -897.010312509012 -1569.00294900043 0.0 0.0 0.0 0.0 0.0 0.0
14379.9059722073 206.870766815607 -609.104653476958 0.0 0.0 0.0 0.0 0.0 0.0
17739.5500065394 1646.71821010081 -530.256004953771 0.0 0.0 0.0 0.0 0.0 0.0
17266.4581154003 542.837130776194 -1490.15430047724 0.0 0.0 0.0 0.0 0.0 0.0
11986.0013865583 -819.088341319667 -1340.68986301553 0.0 0.0 0.0 0.0 0.0 0.0
12497.5338420865 374.487388246081 -282.580565633342 0.0 0.0 0.0 0.0 0.0 0.0
16200.9163829241 1961.65133431937 -197.325156378645 0.0 0.0 0.0 0.0 0.0 0.0
15689.383927396 768.07560475362 -1255.43445376084 0.0 0.0 0.0 0.0 0.0 0.0
9815.29689202168 -775.042733210256 -1088.10728390726 0.0 0.0 0.0 0.0 0.0 0.0
10370.9284795513 521.430971025613 181.114327023869 0.0 0.0 0.0 0.0 0.0 0.0
14813.2041178103 2425.2633874223 273.719591612145 0.0 0.0 0.0 0.0 0.0 0.0
14257.5725302806 1128.78968318643 -995.502019318981 0.0 0.0 0.0 0.0 0.0 0.0
6463.67210244495 -1153.10747630569 -932.211896699999 0.0 0.0 0.0 0.0 0.0 0.0
7469.4193326161 1193.63606076032 891.327187094982 0.0 0.0 0.0 0.0 0.0 0.0
13851.8061258985 3928.94468645279 1058.95172545684 0.0 0.0 0.0 0.0 0.0 0.0
12846.0588957274 1582.20114938678 -764.587358338141 0.0 0.0 0.0 0.0 0.0 0.0
1070.12761812669 -1548.91753116372 -1204.56513219774 0.0 0.0 0.0 0.0 0.0 0.0
2676.4773782723 2199.23190917604 831.981450717902 0.0 0.0 0.0 0.0 0.0 0.0
9804.39041847704 5254.05178354951 1099.70641074217 0.0 0.0 0.0 0.0 0.0 0.0
8198.04065833143 1505.90234320975 -936.840172173471 0.0 0.0 0.0 0.0 0.0 0.0
374.319841129046 1212.59296468608 -2988.03043429919 0.0 0.0 0.0 0.0 0.0 0.0
-6616.8017745896 -15100.0241386574 -2761.37372312033 0.0 0.0 0.0 0.0 0.0 0.0
-5823.50328546357 -14760.0390718891 -3926.56065907343 0.0 0.0 0.0 0.0 0.0 0.0
1167.61833025507 1552.57803145437 -4153.2173702523 0.0 0.0 0.0 0.0 0.0 0.0
12345.3528559117 -6973.38643987116 -4376.177771065 0.0 0.0 0.0 0.0 0.0 0.0
-22418.0529914801 -88088.0000837854 -3400.66196560616 0.0 0.0 0.0 0.0 0.0 0.0
-19003.7476723742 -86624.7263755971 -9194.56294017146 0.0 0.0 0.0 0.0 0.0 0.0
15759.6581750176 -5510.1127316829 -10170.0787456303 0.0 0.0 0.0 0.0 0.0 0.0
125292.417531128 53696.7503704833 -9879.73072464158 0.0 0.0 0.0 0.0 0.0 0.0
100849.714495502 -3336.22337930946 -2664.24263937273 0.0 0.0 0.0 0.0 0.0 0.0
126103.922793943 7487.00874859382 -6738.02647864364 0.0 0.0 0.0 0.0 0.0 0.0
150546.625829569 64519.9824983866 -13953.5145639125 0.0 0.0 0.0 0.0 0.0 0.0
117841.063843252 3945.78348401176 -6054.68825417442 0.0 0.0 0.0 0.0 0.0 0.0
114289.953309671 -4340.14109434299 222.140537701311 0.0 0.0 0.0 0.0 0.0 0.0
136258.854081236 5075.10209347059 -369.711217895458 0.0 0.0 0.0 0.0 0.0 0.0
139809.964614817 13361.0266718253 -6646.54000977119 0.0 0.0 0.0 0.0 0.0 0.0
112563.995582873 -5079.83726297064 -2499.55817107193 0.0 0.0 0.0 0.0 0.0 0.0
113988.915110849 -1755.02503102733 1197.80173550514 0.0 0.0 0.0 0.0 0.0 0.0
126929.674783869 3791.01482883826 1435.28832350109 0.0 0.0 0.0 0.0 0.0 0.0
125504.755255893 466.20259689496 -2262.07158307598 0.0 0.0 0.0 0.0 0.0 0.0
109329.510611658 -3751.91267353793 -2813.76153904182 0.0 0.0 0.0 0.0 0.0 0.0
109685.958161767 -2920.20172328316 1526.95552847174 0.0 0.0 0.0 0.0 0.0 0.0
124878.467898064 3590.87387798717 1586.36345348993 0.0 0.0 0.0 0.0 0.0 0.0
124522.020347955 2759.16292773241 -2754.35361402362 0.0 0.0 0.0 0.0 0.0 0.0
106721.105665726 -4190.85279301495 -3024.01093795868 0.0 0.0 0.0 0.0 0.0 0.0
107281.888521808 -2882.35946215766 1447.20677731153 0.0 0.0 0.0 0.0 0.0 0.0
122931.150525253 3824.46711074766 1540.67058665848 0.0 0.0 0.0 0.0 0.0 0.0
122370.367669172 2515.97377989037 -2930.54712861173 0.0 0.0 0.0 0.0 0.0 0.0
104420.588067721 -4108.63108533757 -3176.90021601428 0.0 0.0 0.0 0.0 0.0 0.0
104955.034943206 -2861.58837587318 1344.7953031753 0.0 0.0 0.0 0.0 0.0 0.0
120780.969260369 3920.95490291118 1433.86978242275 0.0 0.0 0.0 0.0 0.0 0.0
120246.522384885 2673.91219344679 -3087.82573676682 0.0 0.0 0.0 0.0 0.0 0.0
102123.971810605 -4074.90114698769 -3245.88693545022 0.0 0.0 0.0 0.0 0.0 0.0
102681.391236259 -2774.25582046289 1244.82502580561 0.0 0.0 0.0 0.0 0.0 0.0
118398.883100654 3961.81212142086 1337.72826341452 0.0 0.0 0.0 0.0 0.0 0.0
117841.463675001 2661.16679489605 -3152.98369784131 0.0 0.0 0.0 0.0 0.0 0.0
99817.3985556225 -4001.68125502136 -3258.53900617828 0.0 0.0 0.0 0.0 0.0 0.0
100381.150930265 -2686.25904752148 1162.68489471464 0.0 0.0 0.0 0.0 0.0 0.0
115855.434583391 3945.57680381789 1256.64362382177 0.0 0.0 0.0 0.0 0.0 0.0
115291.682208748 2630.15459631802 -3164.58027707115 0.0 0.0 0.0 0.0 0.0 0.0
97489.4039807872 -3925.57916872636 -3238.24965720568 0.0 0.0 0.0 0.0 0.0 0.0
98057.9466709909 -2598.97955825107 1093.56877773575 0.0 0.0 0.0 0.0 0.0 0.0
113219.311193286 3898.74809416106 1188.32589276969 0.0 0.0 0.0 0.0 0.0 0.0
112650.768503082 2572.14848368577 -3143.49254217173 0.0 0.0 0.0 0.0 0.0 0.0
95147.9510155895 -3846.12055342311 -3200.40929680785 0.0 0.0 0.0 0.0 0.0 0.0
95718.3418100171 -2515.20869975876 1032.82405508408 0.0 0.0 0.0 0.0 0.0 0.0
110534.658541639 3834.64132807914 1127.88918748868 0.0 0.0 0.0 0.0 0.0 0.0
109964.267747211 2503.72947441479 -3105.34416440326 0.0 0.0 0.0 0.0 0.0 0.0
92798.4270022647 -3766.60076022405 -3154.0338453563 0.0 0.0 0.0 0.0 0.0 0.0
93369.6166155452 -2433.82499590302 976.637274189925 0.0 0.0 0.0 0.0 0.0 0.0
107826.965533957 3762.18168341632 1071.83554307 0.0 0.0 0.0 0.0 0.0 0.0
107255.775920677 2429.40591909529 -3058.83557647623 0.0 0.0 0.0 0.0 0.0 0.0
90444.8330457982 -3687.30366865172 -3103.84123896454 0.0 0.0 0.0 0.0 0.0 0.0
91016.2712746097 -2353.94780142506 922.728759759115 0.0 0.0 0.0 0.0 0.0 0.0
105109.266270142 3685.90719666042 1017.96846456102 0.0 0.0 0.0 0.0 0.0 0.0
104537.828041331 2352.55132943377 -3008.60153416264 0.0 0.0 0.0 0.0 0.0 0.0
88089.3271823872 -3608.35241237756 -3052.115641647 0.0 0.0 0.0 0.0 0.0 0.0
88660.8209858214 -2274.86687103091 869.852271284409 0.0 0.0 0.0 0.0 0.0 0.0
102387.708681081 3608.0849983662 965.101238523455 0.0 0.0 0.0 0.0 0.0 0.0
101816.214877647 2274.59945701955 -2956.86667440795 0.0 0.0 0.0 0.0 0.0 0.0
85733.0183517702 -3529.63942848142 -2999.86192086915 0.0 0.0 0.0 0.0 0.0 0.0
86304.5031808589 -2196.17482727457 817.398314804096 0.0 0.0 0.0 0.0 0.0 0.0
99664.9140057152 3529.7155262353 912.645786318871 0.0 0.0 0.0 0.0 0.0 0.0
99093.4291766266 2196.25092502844 -2904.61444935437 0.0 0.0 0.0 0.0 0.0 0.0
83376.4113111907 -3451.07134284667 -2947.47689717805 0.0 0.0 0.0 0.0 0.0 0.0
83947.8758837588 -2117.65400685447 765.093802304563 0.0 0.0 0.0 0.0 0.0 0.0
96941.8733319479 3451.20204236946 860.337897732578 0.0 0.0 0.0 0.0 0.0 0.0
96370.4087593798 2117.78470637726 -2852.23280175004 0.0 0.0 0.0 0.0 0.0 0.0
81019.7166703329 -3372.57938403698 -2895.09259758509 0.0 0.0 0.0 0.0 0.0 0.0
81591.1645392143 -2039.2010233136 712.829316416372 0.0 0.0 0.0 0.0 0.0 0.0
94218.8912382195 3372.6818476886 808.070627896613 0.0 0.0 0.0 0.0 0.0 0.0
93647.443369338 2039.30348696522 -2799.85128610485 0.0 0.0 0.0 0.0 0.0 0.0
78663.0105092345 -3294.12417901926 -2842.73893206826 0.0 0.0 0.0 0.0 0.0 0.0
79234.4476269754 -1960.77090429035 660.567340930409 0.0 0.0 0.0 0.0 0.0 0.0
91496.0195824708 3294.18850520765 755.806860553901 0.0 0.0 0.0 0.0 0.0 0.0
90924.5824647298 1960.83523047875 -2747.49941244477 0.0 0.0 0.0 0.0 0.0 0.0
76306.3141155595 -3215.68526632573 -2790.41313487652 0.0 0.0 0.0 0.0 0.0 0.0
76877.7450607386 -1882.34639424138 608.29858255353 0.0 0.0 0.0 0.0 0.0 0.0
88773.2360717437 3215.72118190369 703.537073416698 0.0 0.0 0.0 0.0 0.0 0.0
88201.8051265647 1882.38230981934 -2695.17464401335 0.0 0.0 0.0 0.0 0.0 0.0
73949.6288884387 -3137.25332522702 -2738.10610384254 0.0 0.0 0.0 0.0 0.0 0.0
74521.0565938385 -1803.9220126275 556.022906727217 0.0 0.0 0.0 0.0 0.0 0.0
86050.5081308327 3137.27150322714 651.260857627183 0.0 0.0 0.0 0.0 0.0 0.0
85479.0804254329 1803.94019062763 -2642.86815294258 0.0 0.0 0.0 0.0 0.0 0.0
71592.9499638367 -3058.82485405687 -2685.81057183876 0.0 0.0 0.0 0.0 0.0 0.0
72164.3763370785 -1725.49664982595 503.741873200552 0.0 0.0 0.0 0.0 0.0 0.0
83327.8098947161 3058.83201773302 598.979602074189 0.0 0.0 0.0 0.0 0.0 0.0
82756.3835214743 1725.5038135021 -2590.57284296512 0.0 0.0 0.0 0.0 0.0 0.0
69236.2701622596 -2980.39929617688 -2633.52262994574 0.0 0.0 0.0 0.0 0.0 0.0
69807.6968525586 -1647.07035214595 451.456140144575 0.0 0.0 0.0 0.0 0.0 0.0
80605.1225478747 2980.39780298952 546.69392186107 0.0 0.0 0.0 0.0 0.0 0.0
80033.6958575757 1647.06885895858 -2538.28484822924 0.0 0.0 0.0 0.0 0.0 0.0
66879.5798705396 -2901.97763015412 -2581.24134573891 0.0 0.0 0.0 0.0 0.0 0.0
67451.0090062045 -1568.64298026928 399.164613801722 0.0 0.0 0.0 0.0 0.0 0.0
77882.4298645967 2901.96595904167 494.402803079211 0.0 0.0 0.0 0.0 0.0 0.0
77311.0007289318 1568.63130915683 -2486.00315646142 0.0 0.0 0.0 0.0 0.0 0.0
64522.8652006456 -2823.56175408022 -2528.96817228159 0.0 0.0 0.0 0.0 0.0 0.0
65094.3001448416 -1490.21355095616 346.864019286417 0.0 0.0 0.0 0.0 0.0 0.0
75159.7128153297 2823.53473639585 442.103176652421 0.0 0.0 0.0 0.0 0.0 0.0
74588.2778711337 1490.18653327179 -2433.72901491559 0.0 0.0 0.0 0.0 0.0 0.0
62166.1053283137 -2745.15418661098 -2476.70658030373 0.0 0.0 0.0 0.0 0.0 0.0
62737.5515359297 -1411.77970217373 294.548412819856 0.0 0.0 0.0 0.0 0.0 0.0
72436.9440118623 2745.10278751164 389.789447422517 0.0 0.0 0.0 0.0 0.0 0.0
71865.4978042463 1411.72830307439 -2381.46554570107 0.0 0.0 0.0 0.0 0.0 0.0
59809.2694086847 -2666.75775670731 -2424.46186729118 0.0 0.0 0.0 0.0 0.0 0.0
60380.7354359317 -1333.33702646424 242.208542460094 0.0 0.0 0.0 0.0 0.0 0.0
69714.0818700612 2666.66858816267 337.452880334599 0.0 0.0 0.0 0.0 0.0 0.0
69142.6158428142 1333.2478579196 -2329.21752941668 0.0 0.0 0.0 0.0 0.0 0.0
57452.3135154196 -2588.37499239802 -2372.24090330386 0.0 0.0 0.0 0.0 0.0 0.0
58023.8121536472 -1254.87816986693 189.831180611358 0.0 0.0 0.0 0.0 0.0 0.0
66991.0644473504 2588.2299560059 285.080953649294 0.0 0.0 0.0 0.0 0.0 0.0
66419.5658091228 1254.7331334748 -2276.99113026592 0.0 0.0 0.0 0.0 0.0 0.0
55095.1785055992 -2510.00687617323 -2320.05143716488 0.0 0.0 0.0 0.0 0.0 0.0
55666.727870215 -1176.39169206963 137.39875449546 0.0 0.0 0.0 0.0 0.0 0.0
64267.8035410262 2509.78359542088 232.656981931431 0.0 0.0 0.0 0.0 0.0 0.0
63696.2541764103 1176.16841131728 -2224.79320972891 0.0 0.0 0.0 0.0 0.0 0.0
52737.790601452 -2431.65052153946 -2267.90040735439 0.0 0.0 0.0 0.0 0.0 0.0
53309.414768011 -1097.86079956862 84.8898847863962 0.0 0.0 0.0 0.0 0.0 0.0
61544.1807905037 2431.32463864255 180.160579212885 0.0 0.0 0.0 0.0 0.0 0.0
60972.5566239448 1097.53491667172 -2172.6297129279 0.0 0.0 0.0 0.0 0.0 0.0
50380.0679250705 -2353.29516082883 -2215.79043315887 0.0 0.0 0.0 0.0 0.0 0.0
50951.7963143296 -1019.2622525575 32.2818782679727 0.0 0.0 0.0 0.0 0.0 0.0
58820.0494043236 2352.84621458276 127.569943144497 0.0 0.0 0.0 0.0 0.0 0.0
58248.3210150644 1018.81330631142 -2120.50236828234 0.0 0.0 0.0 0.0 0.0 0.0
48021.9384129364 -2274.91563886889 -2163.71328490138 0.0 0.0 0.0 0.0 0.0 0.0
48593.8025162243 -940.566064530503 -20.4431323512179 0.0 0.0 0.0 0.0 0.0 0.0
56095.2480501498 2274.33916429474 74.8675515300949 0.0 0.0 0.0 0.0 0.0 0.0
55523.383946862 939.98958995636 -2068.40260102007 0.0 0.0 0.0 0.0 0.0 0.0
45663.3776848908 -2196.46242081629 -2111.63864825806 0.0 0.0 0.0 0.0 0.0 0.0
46235.4028109696 -861.737126632244 -73.2857949944291 0.0 0.0 0.0 0.0 0.0 0.0
53369.6377973924 2195.79215326321 22.0517260187168 0.0 0.0 0.0 0.0 0.0 0.0
52797.6126713135 861.066859079165 -2016.30112724492 0.0 0.0 0.0 0.0 0.0 0.0
43304.4797210403 -2117.84702231624 -2059.49594126112 0.0 0.0 0.0 0.0 0.0 0.0
43876.6681601766 -782.740664331515 -126.207070579608 0.0 0.0 0.0 0.0 0.0 0.0
50643.1792075619 2117.19264169075 -30.8423307235564 0.0 0.0 0.0 0.0 0.0 0.0
50070.9907684256 782.086283706019 -1964.13120140506 0.0 0.0 0.0 0.0 0.0 0.0
40945.5786522883 -2038.92188199794 -2007.146396707 0.0 0.0 0.0 0.0 0.0 0.0
41517.8789381391 -703.55454834615 -179.090356527881 0.0 0.0 0.0 0.0 0.0 0.0
47916.075078766 2038.52951192253 -83.7069755527536 0.0 0.0 0.0 0.0 0.0 0.0
47343.7747929152 703.162178270748 -1911.76301573188 0.0 0.0 0.0 0.0 0.0 0.0
38587.4463319541 -1959.45423671116 -1954.34224546743 0.0 0.0 0.0 0.0 0.0 0.0
39159.7011740924 -624.192938388267 -231.681108689046 0.0 0.0 0.0 0.0 0.0 0.0
45189.0151528168 1959.79876677931 -136.305301665982 0.0 0.0 0.0 0.0 0.0 0.0
44616.7603106784 624.537468456416 -1858.96643844437 0.0 0.0 0.0 0.0 0.0 0.0
36231.5968470561 -1879.0947928324 -1900.66986778515 0.0 0.0 0.0 0.0 0.0 0.0
36803.4599255309 -544.747609724483 -283.494963841775 0.0 0.0 0.0 0.0 0.0 0.0
42463.5720893328 1881.01474619058 -188.184450762638 0.0 0.0 0.0 0.0 0.0 0.0
41891.7090108579 546.667563082661 -1805.35935470601 0.0 0.0 0.0 0.0 0.0 0.0
33880.7340295604 -1797.34442228331 -1845.47455888567 0.0 0.0 0.0 0.0 0.0 0.0
34451.5437605008 -465.455050088811 -333.683404354357 0.0 0.0 0.0 0.0 0.0 0.0
39742.8128013604 1802.23168170816 -238.548449197607 0.0 0.0 0.0 0.0 0.0 0.0
39172.00307042 470.342309513664 -1750.33960372892 0.0 0.0 0.0 0.0 0.0 0.0
31539.3784727373 -1713.52588770178 -1787.76633543521 0.0 0.0 0.0 0.0 0.0 0.0
32107.9751698047 -386.800261211141 -380.843686249064 0.0 0.0 0.0 0.0 0.0 0.0
37032.2044419562 1723.58371256808 -286.077570071161 0.0 0.0 0.0 0.0 0.0 0.0
36463.6077448888 396.858086077438 -1693.00021925731 0.0 0.0 0.0 0.0 0.0 0.0
29214.700673835 -1626.77504519815 -1726.10949624439 0.0 0.0 0.0 0.0 0.0 0.0
29779.1763799037 -309.665064371142 -422.75632062605 0.0 0.0 0.0 0.0 0.0 0.0
34340.9124945679 1645.36469905637 -328.677036281264 0.0 0.0 0.0 0.0 0.0 0.0
33776.4367884992 328.254718229367 -1632.03021189961 0.0 0.0 0.0 0.0 0.0 0.0
26917.5611237424 -1536.07160272599 -1658.50188640758 0.0 0.0 0.0 0.0 0.0 0.0
27474.9288488176 -235.546910883899 -456.024220385829 0.0 0.0 0.0 0.0 0.0 0.0
31683.6006798937 1568.16958814873 -363.129599539965 0.0 0.0 0.0 0.0 0.0 0.0
31126.2329548185 267.644896306647 -1565.60726556172 0.0 0.0 0.0 0.0 0.0 0.0
24663.6847054673 -1440.36582946261 -1582.25828026279 0.0 0.0 0.0 0.0 0.0 0.0
25209.5010933961 -166.794257628548 -475.57036645419 0.0 0.0 0.0 0.0 0.0 0.0
29082.9087917262 1493.23761308435 -384.600968466042 0.0 0.0 0.0 0.0 0.0 0.0
28537.0924037974 219.666041250293 -1491.28888227464 0.0 0.0 0.0 0.0 0.0 0.0
22474.808696748 -1338.80528476345 -1493.89981586141 0.0 0.0 0.0 0.0 0.0 0.0
23002.6672015723 -107.135440173566 -473.887481344291 0.0 0.0 0.0 0.0 0.0 0.0
26572.7103723822 1422.88306160212 -385.911063873585 0.0 0.0 0.0 0.0 0.0 0.0
26044.851867558 191.213217012235 -1405.92339839071 0.0 0.0 0.0 0.0 0.0 0.0
20379.1121072059 -1231.51619490204 -1389.13406152395 0.0 0.0 0.0 0.0 0.0 0.0
20880.6226992022 -61.324813577321 -439.86673377307 0.0 0.0 0.0 0.0 0.0 0.0
24203.0583463302 1362.576178049 -356.281635107019 0.0 0.0 0.0 0.0 0.0 0.0
23701.5477543339 192.384796724284 -1305.5489628579 0.0 0.0 0.0 0.0 0.0 0.0
18410.5677248187 -1119.91980259881 -1262.7154735346 0.0 0.0 0.0 0.0 0.0 0.0
18873.8450008966 -38.9394917502759 -356.614580773953 0.0 0.0 0.0 0.0 0.0 0.0
22045.1981255589 1320.21184739069 -279.401701427629 0.0 0.0 0.0 0.0 0.0 0.0
21581.9208494809 239.231536542158 -1185.50259418828 0.0 0.0 0.0 0.0 0.0 0.0
16599.3633393372 -1013.71734670431 -1109.59611337797 0.0 0.0 0.0 0.0 0.0 0.0
17016.6998163938 -39.9322335723573 -197.579407645694 0.0 0.0 0.0 0.0 0.0 0.0
20208.7582864567 1328.09282502605 -128.023328136269 0.0 0.0 0.0 0.0 0.0 0.0
19791.4218094002 354.307711894102 -1040.04003386854 0.0 0.0 0.0 0.0 0.0 0.0
14966.5337372503 -918.57483891955 -922.75785645276 0.0 0.0 0.0 0.0 0.0 0.0
15309.3680530543 -118.628102043601 81.4392232232427 0.0 0.0 0.0 0.0 0.0 0.0
18824.0578319203 1387.6675174704 138.578275857239 0.0 0.0 0.0 0.0 0.0 0.0
18481.2235161163 587.720780594454 -865.618803818763 0.0 0.0 0.0 0.0 0.0 0.0
13366.0242004108 -951.489753176535 -716.737639717093 0.0 0.0 0.0 0.0 0.0 0.0
13738.0803456551 -83.3587476065304 567.1826528469 0.0 0.0 0.0 0.0 0.0 0.0
18231.801369629 1842.52169123946 629.192010387614 0.0 0.0 0.0 0.0 0.0 0.0
17859.7452243848 974.390685669452 -654.728282176378 0.0 0.0 0.0 0.0 0.0 0.0
11770.9351235722 -926.420985642055 -471.124297103387 0.0 0.0 0.0 0.0 0.0 0.0
11825.3138668938 -799.537251225006 1339.14328127918 0.0 0.0 0.0 0.0 0.0 0.0
18161.2503912327 1915.86411634884 1348.20640516611 0.0 0.0 0.0 0.0 0.0 0.0
18106.8716479112 1788.98038193179 -462.061173216455 0.0 0.0 0.0 0.0 0.0 0.0
6171.54839932666 -3222.57959446805 -656.648616351131 0.0 0.0 0.0 0.0 0.0 0.0
8464.41793513393 2127.44932241557 3339.91076676831 0.0 0.0 0.0 0.0 0.0 0.0
22452.375776052 8122.28839709473 3722.05568940285 0.0 0.0 0.0 0.0 0.0 0.0
20159.5062402447 2772.25948021111 -274.503693716587 0.0 0.0 0.0 0.0 0.0 0.0
-172.354153088045 -1574.02442967956 -1913.01301422616 0.0 0.0 0.0 0.0 0.0 0.0
-213.321950566567 -1669.61595712944 1058.71026753891 0.0 0.0 0.0 0.0 0.0 0.0
10187.7095356112 2787.96896551816 1051.88230129249 0.0 0.0 0.0 0.0 0.0 0.0
10228.6773330897 2883.56049296804 -1919.84098047258 0.0 0.0 0.0 0.0 0.0 0.0
21369.8395099146 7580.31038307678 -5184.80781901796 0.0 0.0 0.0 0.0 0.0 0.0
-32942.550067181 -119148.598630146 -2647.65996395005 0.0 0.0 0.0 0.0 0.0 0.0
-24062.5325744433 -115342.876847545 -11699.724893466 0.0 0.0 0.0 0.0 0.0 0.0
30249.8570026523 11386.0321656786 -14236.8727485339 0.0 0.0 0.0 0.0 0.0 0.0
150546.625829569 64519.9824983866 -13953.5145639125 0.0 0.0 0.0 0.0 0.0 0.0
114788.927800809 -18914.646235387 -536.83255229527 0.0 0.0 0.0 0.0 0.0 0.0
161747.314841469 1210.37678203885 -6496.44889042196 0.0 0.0 0.0 0.0 0.0 0.0
197505.012870229 84645.0055158124 -19913.1309020392 0.0 0.0 0.0 0.0 0.0 0.0
128494.969621682 -13040.6283121555 -445.346083422814 0.0 0.0 0.0 0.0 0.0 0.0
135564.953084889 3455.99976866008 117.865325374023 0.0 0.0 0.0 0.0 0.0 0.0
137536.193015678 4300.81688185534 1296.19590257513 0.0 0.0 0.0 0.0 0.0 0.0
130466.209552471 -12195.8111989602 732.984493778298 0.0 0.0 0.0 0.0 0.0 0.0
124810.854259546 -1152.89972791554 -1774.4950398065 0.0 0.0 0.0 0.0 0.0 0.0
124009.16442095 -3023.50935130515 1871.58073250163 0.0 0.0 0.0 0.0 0.0 0.0
136770.429624029 2445.60430715705 1737.96575940237 0.0 0.0 0.0 0.0 0.0 0.0
137572.119462624 4316.21393054666 -1908.11001290576 0.0 0.0 0.0 0.0 0.0 0.0
121601.509985036 -4055.36125241101 -2318.06120502308 0.0 0.0 0.0 0.0 0.0 0.0
122150.140397691 -2775.2236228846 1991.92368410328 0.0 0.0 0.0 0.0 0.0 0.0
137235.087509633 3689.75371080493 2083.36208621231 0.0 0.0 0.0 0.0 0.0 0.0
136686.457096979 2409.61608127852 -2226.62280291405 0.0 0.0 0.0 0.0 0.0 0.0
119642.040168798 -3850.12372098141 -2524.98689799839 0.0 0.0 0.0 0.0 0.0 0.0
120038.993261336 -2923.89983839225 2003.24811357465 0.0 0.0 0.0 0.0 0.0 0.0
135887.815801842 3868.4526789673 2069.40696233102 0.0 0.0 0.0 0.0 0.0 0.0
135490.862709304 2942.22879637814 -2458.82804924202 0.0 0.0 0.0 0.0 0.0 0.0
117354.365120968 -4074.45475569312 -2625.24820985065 0.0 0.0 0.0 0.0 0.0 0.0
117894.779414202 -2813.48807147961 1943.38665935814 0.0 0.0 0.0 0.0 0.0 0.0
133885.001456433 4039.46423233358 2033.45570823053 0.0 0.0 0.0 0.0 0.0 0.0
133344.587163198 2778.49754812007 -2535.17916097826 0.0 0.0 0.0 0.0 0.0 0.0
114955.273828833 -4073.27617949474 -2643.46682090592 0.0 0.0 0.0 0.0 0.0 0.0
115537.018723263 -2715.87142582455 1877.3264562035 0.0 0.0 0.0 0.0 0.0 0.0
131359.795193146 4065.31848983958 1974.28393860852 0.0 0.0 0.0 0.0 0.0 0.0
130778.050298716 2707.91373616939 -2546.50933850091 0.0 0.0 0.0 0.0 0.0 0.0
112429.817831357 -4047.52895092739 -2624.98208428217 0.0 0.0 0.0 0.0 0.0 0.0
113043.609676212 -2615.34797959941 1813.13344920431 0.0 0.0 0.0 0.0 0.0 0.0
128577.014043414 4041.82532063032 1915.43209001345 0.0 0.0 0.0 0.0 0.0 0.0
127963.222198559 2609.64434930233 -2522.68344347303 0.0 0.0 0.0 0.0 0.0 0.0
109838.943595903 -3988.77629973153 -2587.00271678919 0.0 0.0 0.0 0.0 0.0 0.0
110466.787303964 -2523.80764758903 1753.36256784713 0.0 0.0 0.0 0.0 0.0 0.0
125658.065800192 3986.74027936547 1858.00318585731 0.0 0.0 0.0 0.0 0.0 0.0
125030.222092131 2521.77162722297 -2482.36209877901 0.0 0.0 0.0 0.0 0.0 0.0
107211.74385789 -3918.8262673353 -2540.30748932582 0.0 0.0 0.0 0.0 0.0 0.0
107846.444500987 -2437.85810010837 1696.89749694352 0.0 0.0 0.0 0.0 0.0 0.0
122676.66195293 3917.94937929563 1802.68093745973 0.0 0.0 0.0 0.0 0.0 0.0
122041.961309832 2436.98121206871 -2434.52404880961 0.0 0.0 0.0 0.0 0.0 0.0
104567.561880025 -3843.09350909222 -2489.82726702139 0.0 0.0 0.0 0.0 0.0 0.0
105205.022822629 -2355.68464301463 1642.51432894553 0.0 0.0 0.0 0.0 0.0 0.0
119668.218408514 3842.82775093576 1748.75781937965 0.0 0.0 0.0 0.0 0.0 0.0
119030.757465909 2355.41888485816 -2383.58377658727 0.0 0.0 0.0 0.0 0.0 0.0
101915.885330003 -3765.31499699718 -2437.9227482871 0.0 0.0 0.0 0.0 0.0 0.0
102554.36636252 -2275.52592112545 1589.26566708573 0.0 0.0 0.0 0.0 0.0 0.0
116649.525816325 3765.25670193379 1695.67917250514 0.0 0.0 0.0 0.0 0.0 0.0
116011.044783808 2275.46762606206 -2331.50924286769 0.0 0.0 0.0 0.0 0.0 0.0
99261.3149700246 -3686.83366076632 -2385.56947188324 0.0 0.0 0.0 0.0 0.0 0.0
99900.080713935 -2196.38025830872 1536.58065405814 0.0 0.0 0.0 0.0 0.0 0.0
113627.60615473 3686.84493060336 1643.04161137654 0.0 0.0 0.0 0.0 0.0 0.0
112988.840410819 2196.39152814575 -2279.10851456484 0.0 0.0 0.0 0.0 0.0 0.0
96605.8012094802 -3608.21433164647 -2333.13503381968 0.0 0.0 0.0 0.0 0.0 0.0
97244.5970676578 -2117.69066256533 1484.15014384613 0.0 0.0 0.0 0.0 0.0 0.0
110605.095189488 3608.2371039334 1590.61612020907 0.0 0.0 0.0 0.0 0.0 0.0
109966.299331311 2117.71343485225 -2226.66905745675 0.0 0.0 0.0 0.0 0.0 0.0
93950.0918213224 -3529.62148242337 -2280.72844422278 0.0 0.0 0.0 0.0 0.0 0.0
94588.8491915939 -2039.18761845667 1431.82324019672 0.0 0.0 0.0 0.0 0.0 0.0
107582.780087062 3529.63990817258 1538.28280190863 0.0 0.0 0.0 0.0 0.0 0.0
106944.022716791 2039.20604420589 -2174.26888251087 0.0 0.0 0.0 0.0 0.0 0.0
91294.419228984 -3451.08617386091 -2228.36594364071 0.0 0.0 0.0 0.0 0.0 0.0
91933.1346151228 -1960.75027287024 1379.53276354668 0.0 0.0 0.0 0.0 0.0 0.0
104560.780090279 3451.09778791085 1485.98532790316 0.0 0.0 0.0 0.0 0.0 0.0
103922.06470414 1960.76188692018 -2121.91337928423 0.0 0.0 0.0 0.0 0.0 0.0
88638.8258416332 -3372.59689008009 -2176.0372767947 0.0 0.0 0.0 0.0 0.0 0.0
89277.5114214869 -1882.33053708806 1327.25198989564 0.0 0.0 0.0 0.0 0.0 0.0
101539.023854903 3372.60336294746 1433.69958653793 0.0 0.0 0.0 0.0 0.0 0.0
100900.338275049 1882.33700995543 -2069.58968015241 0.0 0.0 0.0 0.0 0.0 0.0
85983.2969655808 -3294.13673247637 -2123.72951467161 0.0 0.0 0.0 0.0 0.0 0.0
86621.9646906815 -1803.91204057482 1274.97189132639 0.0 0.0 0.0 0.0 0.0 0.0
98517.4196116745 3294.14006842217 1381.4165121765 0.0 0.0 0.0 0.0 0.0 0.0
97878.7518865738 1803.91537652062 -2017.28489382149 0.0 0.0 0.0 0.0 0.0 0.0
83327.8090443707 -3215.69303185088 -2071.43333503288 0.0 0.0 0.0 0.0 0.0 0.0
83966.4671464623 -1725.49079363712 1222.69030458362 0.0 0.0 0.0 0.0 0.0 0.0
95495.8998851201 3215.69466578763 1329.13332159889 0.0 0.0 0.0 0.0 0.0 0.0
94857.2417830285 1725.49242757387 -1964.99031801762 0.0 0.0 0.0 0.0 0.0 0.0
80672.3425371038 -3137.25848336217 -2019.14339600868 0.0 0.0 0.0 0.0 0.0 0.0
81310.9961659091 -1647.06668281658 1170.40719879041 0.0 0.0 0.0 0.0 0.0 0.0
92474.4232477059 3137.25920938206 1276.84947025795 0.0 0.0 0.0 0.0 0.0 0.0
91835.7696189007 1647.06740883647 -1912.70112454114 0.0 0.0 0.0 0.0 0.0 0.0
78016.8821287688 -3058.82984159101 -1966.85725151302 0.0 0.0 0.0 0.0 0.0 0.0
78655.534887013 -1568.64007235456 1118.12277169345 0.0 0.0 0.0 0.0 0.0 0.0
89452.9649682356 3058.82996245514 1224.56489806748 0.0 0.0 0.0 0.0 0.0 0.0
88814.3122099914 1568.64019321869 -1860.41512513899 0.0 0.0 0.0 0.0 0.0 0.0
75361.41306807 -2980.40656618724 -1914.57430662904 0.0 0.0 0.0 0.0 0.0 0.0
76000.0685335353 -1490.21048010152 1065.836691826 0.0 0.0 0.0 0.0 0.0 0.0
86431.507028128 2980.40601758104 1172.27926940355 0.0 0.0 0.0 0.0 0.0 0.0
85792.8515626627 1490.20993149532 -1808.13172905149 0.0 0.0 0.0 0.0 0.0 0.0
72705.9165400723 -2901.9899058714 -1862.2951261688 0.0 0.0 0.0 0.0 0.0 0.0
73344.5796751625 -1411.77592399417 1013.54769495226 0.0 0.0 0.0 0.0 0.0 0.0
83410.0295490862 2901.98830768742 1119.99155080064 0.0 0.0 0.0 0.0 0.0 0.0
82771.366413996 1411.77432581019 -1755.85127032042 0.0 0.0 0.0 0.0 0.0 0.0
70050.3646640791 -2823.58235731562 -1810.02102740123 0.0 0.0 0.0 0.0 0.0 0.0
70689.043248773 -1333.33232636321 961.253188379329 0.0 0.0 0.0 0.0 0.0 0.0
80388.503004005 2823.57899730762 1067.69961916164 0.0 0.0 0.0 0.0 0.0 0.0
79749.8244193111 1333.32896635521 -1703.57459661891 0.0 0.0 0.0 0.0 0.0 0.0
67394.7150797249 -2745.18725595525 -1757.75378845986 0.0 0.0 0.0 0.0 0.0 0.0
68033.4212977124 -1254.87274731776 908.948728938806 0.0 0.0 0.0 0.0 0.0 0.0
77366.8801086078 2745.18102878024 1015.39976527005 0.0 0.0 0.0 0.0 0.0 0.0
76728.1738906203 1254.86652014275 -1651.30275212862 0.0 0.0 0.0 0.0 0.0 0.0
64738.9052367741 -2666.80820200563 -1705.49528166172 0.0 0.0 0.0 0.0 0.0 0.0
65377.6574318811 -1176.38641342254 856.627350262015 0.0 0.0 0.0 0.0 0.0 0.0
74345.0866436142 2666.79753446306 963.086049446521 0.0 0.0 0.0 0.0 0.0 0.0
73706.3344485071 1176.37574587997 -1599.03658247721 0.0 0.0 0.0 0.0 0.0 0.0
62082.847160941 -2588.44795811115 -1653.24681311619 0.0 0.0 0.0 0.0 0.0 0.0
62721.6715750942 -1097.85765842043 804.278803438517 0.0 0.0 0.0 0.0 0.0 0.0
71323.0112330357 2588.43076641164 910.749539130711 0.0 0.0 0.0 0.0 0.0 0.0
70684.1868188825 1097.84046672091 -1546.776077424 0.0 0.0 0.0 0.0 0.0 0.0
59426.4246580128 -2510.10633716959 -1601.00789142081 0.0 0.0 0.0 0.0 0.0 0.0
60065.3566225202 -1019.26508665225 751.888893843008 0.0 0.0 0.0 0.0 0.0 0.0
68300.4953709436 2510.08009124348 858.377554594246 0.0 0.0 0.0 0.0 0.0 0.0
67661.5634064362 1019.23884072614 -1494.51923066957 0.0 0.0 0.0 0.0 0.0 0.0
56769.4968470809 -2431.77641898338 -1548.77405365222 0.0 0.0 0.0 0.0 0.0 0.0
57408.5803505154 -940.581577636265 699.43928984799 0.0 0.0 0.0 0.0 0.0 0.0
65277.3270527661 2431.73843761405 805.95320708707 0.0 0.0 0.0 0.0 0.0 0.0
64638.2435493317 940.543596266936 -1442.26013641314 0.0 0.0 0.0 0.0 0.0 0.0
54111.9148930538 -2353.43820226266 -1496.53325431658 0.0 0.0 0.0 0.0 0.0 0.0
54751.198592879 -861.7762360038 646.90848822828 0.0 0.0 0.0 0.0 0.0 0.0
62253.244691786 2353.38637781349 753.455771532484 0.0 0.0 0.0 0.0 0.0 0.0
61613.9609919608 861.724411554624 -1389.98597101237 0.0 0.0 0.0 0.0 0.0 0.0
51453.5632140427 -2275.04854121938 -1444.26019054673 0.0 0.0 0.0 0.0 0.0 0.0
52093.0896762135 -782.820129487423 594.27509455833 0.0 0.0 0.0 0.0 0.0 0.0
59227.9631740812 2274.98279817017 700.862838253469 0.0 0.0 0.0 0.0 0.0 0.0
58588.4367119104 782.754386438217 -1337.67244685159 0.0 0.0 0.0 0.0 0.0 0.0
48794.4426472467 -2196.52599904461 -1391.90783286545 0.0 0.0 0.0 0.0 0.0 0.0
49434.2257677942 -703.698717767253 541.525264183829 0.0 0.0 0.0 0.0 0.0 0.0
56201.2416074667 2196.45092780667 648.155784275069 0.0 0.0 0.0 0.0 0.0 0.0
55561.4584869192 703.623646529311 -1285.27731277421 0.0 0.0 0.0 0.0 0.0 0.0
46134.8213531475 -2117.72918118725 -1339.39542082449 0.0 0.0 0.0 0.0 0.0 0.0
46774.8044392037 -624.43531372277 488.667096534108 0.0 0.0 0.0 0.0 0.0 0.0
53173.0232499588 2117.65846231512 595.330944210142 0.0 0.0 0.0 0.0 0.0 0.0
52533.0401639026 624.364594850642 -1232.73157314846 0.0 0.0 0.0 0.0 0.0 0.0
43475.4896711161 -2038.42735718889 -1286.5923663575 0.0 0.0 0.0 0.0 0.0 0.0
44115.4734787387 -545.131806069479 435.756024168565 0.0 0.0 0.0 0.0 0.0 0.0
50143.69284558 2038.39077971963 542.419992105666 0.0 0.0 0.0 0.0 0.0 0.0
49503.7090379574 545.095228600218 -1179.9283984204 0.0 0.0 0.0 0.0 0.0 0.0
40818.1673367799 -1958.26300976613 -1233.29802887147 0.0 0.0 0.0 0.0 0.0 0.0
41457.693577493 -466.035114768863 382.936810068974 0.0 0.0 0.0 0.0 0.0 0.0
47114.5155137845 1958.3171436418 489.524516854493 0.0 0.0 0.0 0.0 0.0 0.0
46474.9892730714 466.089248644534 -1126.71032208595 0.0 0.0 0.0 0.0 0.0 0.0
38166.1245585802 -1876.70755144578 -1179.21834289731 0.0 0.0 0.0 0.0 0.0 0.0
38804.2959597071 -387.640948816224 330.509776681903 0.0 0.0 0.0 0.0 0.0 0.0
44088.3443782344 1876.95123055259 436.871676869728 0.0 0.0 0.0 0.0 0.0 0.0
43450.1729771074 387.884627923035 -1072.85644270948 0.0 0.0 0.0 0.0 0.0 0.0
35525.0909032355 -1793.01454444695 -1123.9419933778 0.0 0.0 0.0 0.0 0.0 0.0
36160.3048101088 -310.848761742458 279.031431217581 0.0 0.0 0.0 0.0 0.0 0.0
41070.7117961926 1793.61137515061 384.900415696473 0.0 0.0 0.0 0.0 0.0 0.0
40435.4978893193 311.445592446125 -1018.07300889891 0.0 0.0 0.0 0.0 0.0 0.0
32904.5371566518 -1706.17775608117 -1066.92121061086 0.0 0.0 0.0 0.0 0.0 0.0
33534.1022986662 -237.192424714223 229.464241718026 0.0 0.0 0.0 0.0 0.0 0.0
38071.4513818173 1707.38575377911 334.391765387094 0.0 0.0 0.0 0.0 0.0 0.0
37441.8862398029 238.400422412164 -961.993686941797 0.0 0.0 0.0 0.0 0.0 0.0
30319.4227589169 -1614.91222746395 -1007.46598756243 0.0 0.0 0.0 0.0 0.0 0.0
30939.0316121245 -169.158236646042 183.396355252304 0.0 0.0 0.0 0.0 0.0 0.0
35107.0498119761 1617.13527757606 286.664497453583 0.0 0.0 0.0 0.0 0.0 0.0
34487.4409587684 171.381286758155 -904.197845361153 0.0 0.0 0.0 0.0 0.0 0.0
27792.5233360282 -1517.66178354448 -944.762927482374 0.0 0.0 0.0 0.0 0.0 0.0
28395.4972137813 -110.722735453879 143.377614006188 0.0 0.0 0.0 0.0 0.0 0.0
32203.9891089913 1521.48807677896 243.873260298374 0.0 0.0 0.0 0.0 0.0 0.0
31601.0152312381 114.549028688358 -844.267281190188 0.0 0.0 0.0 0.0 0.0 0.0
25357.440289613 -1412.747131526 -877.944815918476 0.0 0.0 0.0 0.0 0.0 0.0
25933.8189038731 -67.8636982524094 113.425093426831 0.0 0.0 0.0 0.0 0.0 0.0
29403.6135865817 1419.19116576555 209.488195803516 0.0 0.0 0.0 0.0 0.0 0.0
28827.2349723216 74.3077324919614 -781.881713541791 0.0 0.0 0.0 0.0 0.0 0.0
23062.6562858248 -1298.36196313024 -806.212805557482 0.0 0.0 0.0 0.0 0.0 0.0
23597.3251665513 -50.8012414352361 99.9942908253004 0.0 0.0 0.0 0.0 0.0 0.0
26769.050003891 1308.50940313894 189.105770946372 0.0 0.0 0.0 0.0 0.0 0.0
26234.3811231646 60.9486814439333 -717.101325436411 0.0 0.0 0.0 0.0 0.0 0.0
20976.187669702 -1174.14588294208 -729.226668255956 0.0 0.0 0.0 0.0 0.0 0.0
21448.658727151 -71.7134155610202 113.331758893395 0.0 0.0 0.0 0.0 0.0 0.0
24397.6132221737 1192.12422516301 192.076935134899 0.0 0.0 0.0 0.0 0.0 0.0
23925.1421647247 89.6917577819513 -650.481492014452 0.0 0.0 0.0 0.0 0.0 0.0
19194.8824109923 -1037.61755105761 -647.306573547518 0.0 0.0 0.0 0.0 0.0 0.0
19567.0602593806 -169.202571485004 172.354093466677 0.0 0.0 0.0 0.0 0.0 0.0
22435.8725939302 1060.28842903629 234.383734864721 0.0 0.0 0.0 0.0 0.0 0.0
22063.694745542 191.873449463681 -585.276932149475 0.0 0.0 0.0 0.0 0.0 0.0
17839.5254890401 -909.574615916605 -565.241382215817 0.0 0.0 0.0 0.0 0.0 0.0
18089.0950094006 -327.245735075501 306.780338673169 0.0 0.0 0.0 0.0 0.0 0.0
21141.1710325121 980.786846257977 348.375258733248 0.0 0.0 0.0 0.0 0.0 0.0
20891.6015121516 398.457965416874 -523.646462155738 0.0 0.0 0.0 0.0 0.0 0.0
17124.7824018651 -740.522566876452 -486.526219360448 0.0 0.0 0.0 0.0 0.0 0.0
17051.0176378409 -912.640349599507 601.523793638109 0.0 0.0 0.0 0.0 0.0 0.0
20859.1926833359 719.43466989833 589.229666300748 0.0 0.0 0.0 0.0 0.0 0.0
20932.95744736 891.552452621385 -498.82034669781 0.0 0.0 0.0 0.0 0.0 0.0
16926.087916123 -966.18165890717 -489.72938996596 0.0 0.0 0.0 0.0 0.0 0.0
17003.3150252327 -785.985070984596 1169.85090194088 0.0 0.0 0.0 0.0 0.0 0.0
22811.8460469066 1703.38536687567 1182.7220867925 0.0 0.0 0.0 0.0 0.0 0.0
22734.618937797 1523.18877895309 -476.858205114347 0.0 0.0 0.0 0.0 0.0 0.0
19001.5708742447 70.4102928776701 -452.859196941815 0.0 0.0 0.0 0.0 0.0 0.0
15962.1297961722 -7021.61888929131 2570.13439408256 0.0 0.0 0.0 0.0 0.0 0.0
26542.6073647575 -2487.12850275475 2063.56088107049 0.0 0.0 0.0 0.0 0.0 0.0
29582.04844283 4604.90067941423 -959.432709953885 0.0 0.0 0.0 0.0 0.0 0.0
3738.43135320996 -12260.346793418 -3071.76227579287 0.0 0.0 0.0 0.0 0.0 0.0
15612.5722460211 15445.9819564748 8695.96826223972 0.0 0.0 0.0 0.0 0.0 0.0
56799.6291291352 33097.5777635237 10674.9917443749 0.0 0.0 0.0 0.0 0.0 0.0
44925.488236324 5391.24901363089 -1092.73879365768 0.0 0.0 0.0 0.0 0.0 0.0
35674.7197130623 24044.0451566353 -6592.78678758667 0.0 0.0 0.0 0.0 0.0 0.0
-43268.3878721124 -160156.539208772 4703.6832974008 0.0 0.0 0.0 0.0 0.0 0.0
-3730.74257465621 -143211.834081291 -8453.50130012831 0.0 0.0 0.0 0.0 0.0 0.0
75212.3650105185 40988.7502841165 -19749.9713851158 0.0 0.0 0.0 0.0 0.0 0.0

